POSCAR file for Cu_3x3x5.xsd | Created o
   1.00000000000000     
     5.4128999999999996   -5.4128999999999996   -0.0000000000000013
     0.0000000000000000    5.4128999999999996   -5.4128999999999996
    10.5849693585628994   10.5849693585628994   10.5849693585628994
   Cu   Rh   C    H 
    44     1     1     4
Selective dynamics
Direct
  0.2222222222222214  0.1111111111111143  0.0000000000000000   F   F   F
  0.2222222222222214  0.4444444444444429  0.0000000000000000   F   F   F
  0.2222222222222214  0.7777777777777786  0.0000000000000000   F   F   F
  0.5555555555555571  0.1111111111111143  0.0000000000000000   F   F   F
  0.5555555555555571  0.4444444444444429  0.0000000000000000   F   F   F
  0.5555555555555571  0.7777777777777786  0.0000000000000000   F   F   F
  0.8888888888888928  0.1111111111111143  0.0000000000000000   F   F   F
  0.8888888888888928  0.4444444444444429  0.0000000000000000   F   F   F
  0.8888888888888928  0.7777777777777786  0.0000000000000000   F   F   F
  0.0000000000000000  0.0000000000000000  0.1136391260021554   F   F   F
  0.0000000000000000  0.3333333333333357  0.1136391260021554   F   F   F
  0.0000000000000000  0.6666666666666643  0.1136391260021554   F   F   F
  0.3333333333333357  0.0000000000000000  0.1136391260021554   F   F   F
  0.3333333333333357  0.3333333333333357  0.1136391260021554   F   F   F
  0.3333333333333357  0.6666666666666643  0.1136391260021554   F   F   F
  0.6666666666666643  0.0000000000000000  0.1136391260021554   F   F   F
  0.6666666666666643  0.3333333333333357  0.1136391260021554   F   F   F
  0.6666666666666643  0.6666666666666643  0.1136391260021554   F   F   F
  0.9939486302968851  0.9962567616045181  0.4511162939903604   T   T   T
  0.2225942810077304  0.1144218105200802  0.3397478501744550   T   T   T
  0.1107021242381295  0.2224861492654544  0.2260679964575578   T   T   T
  0.3316424661138502  0.9975060203740332  0.4519265951538440   T   T   T
  0.5541661781502472  0.1121496290636042  0.3392491122933152   T   T   T
  0.4441203624903358  0.2222958780883419  0.2260674225841087   T   T   T
  0.6649996064554377  0.0003883186761979  0.4512257505257403   T   T   T
  0.8884742315930579  0.1118345956090658  0.3392181655234304   T   T   T
  0.7776451673789738  0.2225909693739558  0.2265941965226966   T   T   T
  0.9945919175876110  0.3334238115458432  0.4515528742668362   T   T   T
  0.2221886634490774  0.4431839676371367  0.3397387911261864   T   T   T
  0.1110043868903218  0.5556014245557531  0.2267546883871070   T   T   T
  0.5542805930398970  0.4448395026817366  0.3386900012412641   T   T   T
  0.4440856023317993  0.5561829824687247  0.2261052397958713   T   T   T
  0.6686886798549261  0.3340026206387464  0.4521249209118623   T   T   T
  0.8876987201577616  0.4449362408667618  0.3391468643184083   T   T   T
  0.7777125824818272  0.5560540946907165  0.2263134196994719   T   T   T
 -0.0000526725005692  0.6678573455205102  0.4511275786056816   T   T   T
  0.2220108207508054  0.7786842300379211  0.3390270441733272   T   T   T
  0.1109416375679459  0.8897803523591857  0.2267865297489064   T   T   T
  0.3314066976645819  0.6703406444348516  0.4518376176156093   T   T   T
  0.5540806684158700  0.7770524364158438  0.3393607604967567   T   T   T
  0.4442618004979495  0.8893372793152192  0.2265634806838372   T   T   T
  0.6683172469701917  0.6697676902902074  0.4527978972210526   T   T   T
  0.8873870606679366  0.7777715217107326  0.3391875867729380   T   T   T
  0.7775481778132532  0.8893653027999346  0.2266085254997475   T   T   T
  0.3324243659015113  0.3342880213248564  0.4621819336626558   T   T   T
  0.3130875433022933  0.3217173443721698  0.5831670160366208   T   T   T
  0.3224407173201747  0.4587082125729897  0.6060718473892582   T   T   T
  0.4986528653923341  0.4303443174582220  0.5271599560179608   T   T   T
  0.4105060477481109  0.2807733716961292  0.6141442632348064   T   T   T
  0.1570509216935813  0.1951722811116743  0.5855954012934932   T   T   T
 
  0.00000000E+00  0.00000000E+00  0.00000000E+00
  0.00000000E+00  0.00000000E+00  0.00000000E+00
  0.00000000E+00  0.00000000E+00  0.00000000E+00
  0.00000000E+00  0.00000000E+00  0.00000000E+00
  0.00000000E+00  0.00000000E+00  0.00000000E+00
  0.00000000E+00  0.00000000E+00  0.00000000E+00
  0.00000000E+00  0.00000000E+00  0.00000000E+00
  0.00000000E+00  0.00000000E+00  0.00000000E+00
  0.00000000E+00  0.00000000E+00  0.00000000E+00
  0.00000000E+00  0.00000000E+00  0.00000000E+00
  0.00000000E+00  0.00000000E+00  0.00000000E+00
  0.00000000E+00  0.00000000E+00  0.00000000E+00
  0.00000000E+00  0.00000000E+00  0.00000000E+00
  0.00000000E+00  0.00000000E+00  0.00000000E+00
  0.00000000E+00  0.00000000E+00  0.00000000E+00
  0.00000000E+00  0.00000000E+00  0.00000000E+00
  0.00000000E+00  0.00000000E+00  0.00000000E+00
  0.00000000E+00  0.00000000E+00  0.00000000E+00
  0.00000000E+00  0.00000000E+00  0.00000000E+00
  0.00000000E+00  0.00000000E+00  0.00000000E+00
  0.00000000E+00  0.00000000E+00  0.00000000E+00
  0.00000000E+00  0.00000000E+00  0.00000000E+00
  0.00000000E+00  0.00000000E+00  0.00000000E+00
  0.00000000E+00  0.00000000E+00  0.00000000E+00
  0.00000000E+00  0.00000000E+00  0.00000000E+00
  0.00000000E+00  0.00000000E+00  0.00000000E+00
  0.00000000E+00  0.00000000E+00  0.00000000E+00
  0.00000000E+00  0.00000000E+00  0.00000000E+00
  0.00000000E+00  0.00000000E+00  0.00000000E+00
  0.00000000E+00  0.00000000E+00  0.00000000E+00
  0.00000000E+00  0.00000000E+00  0.00000000E+00
  0.00000000E+00  0.00000000E+00  0.00000000E+00
  0.00000000E+00  0.00000000E+00  0.00000000E+00
  0.00000000E+00  0.00000000E+00  0.00000000E+00
  0.00000000E+00  0.00000000E+00  0.00000000E+00
  0.00000000E+00  0.00000000E+00  0.00000000E+00
  0.00000000E+00  0.00000000E+00  0.00000000E+00
  0.00000000E+00  0.00000000E+00  0.00000000E+00
  0.00000000E+00  0.00000000E+00  0.00000000E+00
  0.00000000E+00  0.00000000E+00  0.00000000E+00
  0.00000000E+00  0.00000000E+00  0.00000000E+00
  0.00000000E+00  0.00000000E+00  0.00000000E+00
  0.00000000E+00  0.00000000E+00  0.00000000E+00
  0.00000000E+00  0.00000000E+00  0.00000000E+00
  0.00000000E+00  0.00000000E+00  0.00000000E+00
  0.00000000E+00  0.00000000E+00  0.00000000E+00
  0.00000000E+00  0.00000000E+00  0.00000000E+00
  0.00000000E+00  0.00000000E+00  0.00000000E+00
  0.00000000E+00  0.00000000E+00  0.00000000E+00
  0.00000000E+00  0.00000000E+00  0.00000000E+00
