POSCAR file for Cu_3x3x5.xsd | Created o
   1.00000000000000     
     5.4128999999999996   -5.4128999999999996   -0.0000000000000013
     0.0000000000000000    5.4128999999999996   -5.4128999999999996
    10.5849693585628994   10.5849693585628994   10.5849693585628994
   Cu   Rh   C    H 
    44     1     1     4
Selective dynamics
Direct
  0.2222222222222214  0.1111111111111143  0.0000000000000000   F   F   F
  0.2222222222222214  0.4444444444444429  0.0000000000000000   F   F   F
  0.2222222222222214  0.7777777777777786  0.0000000000000000   F   F   F
  0.5555555555555571  0.1111111111111143  0.0000000000000000   F   F   F
  0.5555555555555571  0.4444444444444429  0.0000000000000000   F   F   F
  0.5555555555555571  0.7777777777777786  0.0000000000000000   F   F   F
  0.8888888888888928  0.1111111111111143  0.0000000000000000   F   F   F
  0.8888888888888928  0.4444444444444429  0.0000000000000000   F   F   F
  0.8888888888888928  0.7777777777777786  0.0000000000000000   F   F   F
  0.0000000000000000  0.0000000000000000  0.1136391260021554   F   F   F
  0.0000000000000000  0.3333333333333357  0.1136391260021554   F   F   F
  0.0000000000000000  0.6666666666666643  0.1136391260021554   F   F   F
  0.3333333333333357  0.0000000000000000  0.1136391260021554   F   F   F
  0.3333333333333357  0.3333333333333357  0.1136391260021554   F   F   F
  0.3333333333333357  0.6666666666666643  0.1136391260021554   F   F   F
  0.6666666666666643  0.0000000000000000  0.1136391260021554   F   F   F
  0.6666666666666643  0.3333333333333357  0.1136391260021554   F   F   F
  0.6666666666666643  0.6666666666666643  0.1136391260021554   F   F   F
 -0.0071148984211195 -0.0044490228093460  0.4530043041515033   T   T   T
  0.2221441810223314  0.1136589009756609  0.3402471227278513   T   T   T
  0.1104661844079785  0.2227466273636855  0.2266714723700764   T   T   T
  0.3318043082033505 -0.0027798746498011  0.4536879284574943   T   T   T
  0.5543489644928599  0.1127585281015321  0.3403068553181615   T   T   T
  0.4440640035728248  0.2225011155914569  0.2267309355829845   T   T   T
  0.6650711695278156  0.0006376298625638  0.4528086403187043   T   T   T
  0.8892705578599446  0.1125603523588991  0.3404065475029914   T   T   T
  0.7780772106532243  0.2231545491688407  0.2273546361371181   T   T   T
 -0.0064499240810636  0.3333193761546687  0.4534551322713231   T   T   T
  0.2217678719573688  0.4441147818819516  0.3402329999313269   T   T   T
  0.1109872992318923  0.5564334832556846  0.2273689319585339   T   T   T
  0.5546875463919685  0.4453284956491704  0.3393080835480661   T   T   T
  0.4440607220134477  0.5565634314233870  0.2267913460454763   T   T   T
  0.6685453147709104  0.3348284671595837  0.4539883799145228   T   T   T
  0.8877361397425579  0.4452384145814743  0.3403945762388410   T   T   T
  0.7777406559367275  0.5564161072404448  0.2269894621242038   T   T   T
  0.0001777882070637  0.6681214902102981  0.4532180714809992   T   T   T
  0.2227872140537556  0.7793132827451785  0.3401680798654558   T   T   T
  0.1109996019912603  0.8896697524013581  0.2274122846505566   T   T   T
  0.3315337941724160  0.6710256158807122  0.4536523908608468   T   T   T
  0.5543807073679743  0.7772575755274641  0.3404256887865292   T   T   T
  0.4440886444172892  0.8895529000698643  0.2272344989009518   T   T   T
  0.6681567391426937  0.6691567097726600  0.4546614063922854   T   T   T
  0.8874762087341322  0.7780724541070216  0.3404466362904361   T   T   T
  0.7779802794698002  0.8899198073256513  0.2273807892877253   T   T   T
  0.3313771730536650  0.3339866731348879  0.4623216853837782   T   T   T
  0.3125795886694775  0.3212094094530795  0.5829654749475693   T   T   T
  0.3214452614866786  0.4579571270895516  0.6059351442102873   T   T   T
  0.4994625705490968  0.4315265492740729  0.5267930414261494   T   T   T
  0.4106310853408905  0.2806141169124078  0.6137053529887456   T   T   T
  0.1567165805591057  0.1941580471517194  0.5852745690073057   T   T   T
 
  0.00000000E+00  0.00000000E+00  0.00000000E+00
  0.00000000E+00  0.00000000E+00  0.00000000E+00
  0.00000000E+00  0.00000000E+00  0.00000000E+00
  0.00000000E+00  0.00000000E+00  0.00000000E+00
  0.00000000E+00  0.00000000E+00  0.00000000E+00
  0.00000000E+00  0.00000000E+00  0.00000000E+00
  0.00000000E+00  0.00000000E+00  0.00000000E+00
  0.00000000E+00  0.00000000E+00  0.00000000E+00
  0.00000000E+00  0.00000000E+00  0.00000000E+00
  0.00000000E+00  0.00000000E+00  0.00000000E+00
  0.00000000E+00  0.00000000E+00  0.00000000E+00
  0.00000000E+00  0.00000000E+00  0.00000000E+00
  0.00000000E+00  0.00000000E+00  0.00000000E+00
  0.00000000E+00  0.00000000E+00  0.00000000E+00
  0.00000000E+00  0.00000000E+00  0.00000000E+00
  0.00000000E+00  0.00000000E+00  0.00000000E+00
  0.00000000E+00  0.00000000E+00  0.00000000E+00
  0.00000000E+00  0.00000000E+00  0.00000000E+00
  0.00000000E+00  0.00000000E+00  0.00000000E+00
  0.00000000E+00  0.00000000E+00  0.00000000E+00
  0.00000000E+00  0.00000000E+00  0.00000000E+00
  0.00000000E+00  0.00000000E+00  0.00000000E+00
  0.00000000E+00  0.00000000E+00  0.00000000E+00
  0.00000000E+00  0.00000000E+00  0.00000000E+00
  0.00000000E+00  0.00000000E+00  0.00000000E+00
  0.00000000E+00  0.00000000E+00  0.00000000E+00
  0.00000000E+00  0.00000000E+00  0.00000000E+00
  0.00000000E+00  0.00000000E+00  0.00000000E+00
  0.00000000E+00  0.00000000E+00  0.00000000E+00
  0.00000000E+00  0.00000000E+00  0.00000000E+00
  0.00000000E+00  0.00000000E+00  0.00000000E+00
  0.00000000E+00  0.00000000E+00  0.00000000E+00
  0.00000000E+00  0.00000000E+00  0.00000000E+00
  0.00000000E+00  0.00000000E+00  0.00000000E+00
  0.00000000E+00  0.00000000E+00  0.00000000E+00
  0.00000000E+00  0.00000000E+00  0.00000000E+00
  0.00000000E+00  0.00000000E+00  0.00000000E+00
  0.00000000E+00  0.00000000E+00  0.00000000E+00
  0.00000000E+00  0.00000000E+00  0.00000000E+00
  0.00000000E+00  0.00000000E+00  0.00000000E+00
  0.00000000E+00  0.00000000E+00  0.00000000E+00
  0.00000000E+00  0.00000000E+00  0.00000000E+00
  0.00000000E+00  0.00000000E+00  0.00000000E+00
  0.00000000E+00  0.00000000E+00  0.00000000E+00
  0.00000000E+00  0.00000000E+00  0.00000000E+00
  0.00000000E+00  0.00000000E+00  0.00000000E+00
  0.00000000E+00  0.00000000E+00  0.00000000E+00
  0.00000000E+00  0.00000000E+00  0.00000000E+00
  0.00000000E+00  0.00000000E+00  0.00000000E+00
  0.00000000E+00  0.00000000E+00  0.00000000E+00
