Al Co  S                                
   1.00000000000000     
     9.6027250953742751    0.0000000000000000    0.0000000000000000
     0.0000000000000000    9.6027250953742751    0.0000000000000000
     0.0000000000000000    0.0000000000000000    9.6027250953742751
   Al   Co   S 
     7    16    32
Direct
  0.0006629638716166 -0.0000331559150536 -0.0000331559150536
  0.2480889474976270  0.7495619954378999  0.7495619954378999
  0.5000331559150536 -0.0000331559150536  0.4993370361283833
  0.5000331559150536  0.4993370361283833 -0.0000331559150536
  0.7504380045621001  0.2519110525023729  0.7495619954378999
  0.7504380045621001  0.7495619954378999  0.2519110525023729
  0.1734366754837829  0.3265633245162170  0.3265633245162170
  0.1257982198521631  0.1237599812159207  0.6276613074215536
  0.8725260378088843  0.8733673448685710  0.6274739621911157
  0.3769984765361590  0.1230015234638409  0.8772267154575236
  0.6250770893237351  0.8749229106762649  0.8749229106762649
  0.1271029135845199  0.3728970864154803  0.8708952945493528
  0.8725260378088843  0.6274739621911157  0.8733673448685710
  0.3762400187840790  0.3742017801478370  0.6276613074215536
  0.6266326551314290  0.6274739621911157  0.6274739621911157
  0.3769984765361590  0.8772267154575236  0.1230015234638409
  0.3762400187840790  0.6276613074215536  0.3742017801478370
  0.1257982198521631  0.6276613074215536  0.1237599812159207
  0.1271029135845199  0.8708952945493525  0.3728970864154803
  0.8723386925784464  0.3742017801478370  0.1237599812159207
  0.8723386925784464  0.1237599812159207  0.3742017801478370
  0.6227732845424764  0.1230015234638409  0.1230015234638409
  0.6291047054506472  0.3728970864154803  0.3728970864154803
  0.1061597095385319  0.1106216803927236  0.3938402904614679
  0.6381138892597610  0.8618861107402390  0.6392943710247958
  0.3897829477045194  0.1102170522954805  0.1102170522954805
  0.8607056289752042  0.8618861107402390  0.8618861107402390
  0.1061597095385319  0.3938402904614679  0.1106216803927236
  0.6381138892597610  0.6392943710247958  0.8618861107402390
  0.3893783196072763  0.3938402904614679  0.3938402904614679
  0.8583682965412955  0.6416317034587045  0.6416317034587045
  0.1099516816123892  0.6107493756469813  0.8852909504443788
  0.3620212872129763  0.8623772618133851  0.3592094084132600
  0.1099516816123892  0.8852909504443788  0.6107493756469813
  0.3622252857448953  0.6387304562835769  0.1377747142551049
  0.3890404665907401  0.8880285102182978  0.8880285102182978
  0.1430748878056864  0.6335218036603297  0.3569251121943136
  0.3874762856425139  0.6124541490075703  0.6124541490075703
  0.1407905915867401  0.8623772618133851  0.1379787127870238
  0.6119714897817022  0.1109595334092599  0.8880285102182978
  0.3622252857448953  0.1377747142551049  0.6387304562835769
  0.8892506243530187  0.3900483183876109  0.8852909504443788
  0.1430748878056864  0.3569251121943136  0.6335218036603297
  0.8875458509924297  0.1125237143574861  0.6124541490075703
  0.1407905915867401  0.1379787127870238  0.8623772618133851
  0.6147090495556212  0.3900483183876109  0.6107493756469813
  0.3620212872129763  0.3592094084132600  0.8623772618133851
  0.6147090495556212  0.6107493756469813  0.3900483183876109
  0.8875458509924297  0.6124541490075703  0.1125237143574861
  0.6119714897817022  0.8880285102182978  0.1109595334092599
  0.8892506243530187  0.8852909504443788  0.3900483183876109
  0.8664781963396703  0.3569251121943136  0.3569251121943136
  0.8612695437164231  0.1377747142551049  0.1377747142551049
  0.6376227381866149  0.1379787127870238  0.3592094084132600
  0.6376227381866149  0.3592094084132600  0.1379787127870238
 
  0.00000000E+00  0.00000000E+00  0.00000000E+00
  0.00000000E+00  0.00000000E+00  0.00000000E+00
  0.00000000E+00  0.00000000E+00  0.00000000E+00
  0.00000000E+00  0.00000000E+00  0.00000000E+00
  0.00000000E+00  0.00000000E+00  0.00000000E+00
  0.00000000E+00  0.00000000E+00  0.00000000E+00
  0.00000000E+00  0.00000000E+00  0.00000000E+00
  0.00000000E+00  0.00000000E+00  0.00000000E+00
  0.00000000E+00  0.00000000E+00  0.00000000E+00
  0.00000000E+00  0.00000000E+00  0.00000000E+00
  0.00000000E+00  0.00000000E+00  0.00000000E+00
  0.00000000E+00  0.00000000E+00  0.00000000E+00
  0.00000000E+00  0.00000000E+00  0.00000000E+00
  0.00000000E+00  0.00000000E+00  0.00000000E+00
  0.00000000E+00  0.00000000E+00  0.00000000E+00
  0.00000000E+00  0.00000000E+00  0.00000000E+00
  0.00000000E+00  0.00000000E+00  0.00000000E+00
  0.00000000E+00  0.00000000E+00  0.00000000E+00
  0.00000000E+00  0.00000000E+00  0.00000000E+00
  0.00000000E+00  0.00000000E+00  0.00000000E+00
  0.00000000E+00  0.00000000E+00  0.00000000E+00
  0.00000000E+00  0.00000000E+00  0.00000000E+00
  0.00000000E+00  0.00000000E+00  0.00000000E+00
  0.00000000E+00  0.00000000E+00  0.00000000E+00
  0.00000000E+00  0.00000000E+00  0.00000000E+00
  0.00000000E+00  0.00000000E+00  0.00000000E+00
  0.00000000E+00  0.00000000E+00  0.00000000E+00
  0.00000000E+00  0.00000000E+00  0.00000000E+00
  0.00000000E+00  0.00000000E+00  0.00000000E+00
  0.00000000E+00  0.00000000E+00  0.00000000E+00
  0.00000000E+00  0.00000000E+00  0.00000000E+00
  0.00000000E+00  0.00000000E+00  0.00000000E+00
  0.00000000E+00  0.00000000E+00  0.00000000E+00
  0.00000000E+00  0.00000000E+00  0.00000000E+00
  0.00000000E+00  0.00000000E+00  0.00000000E+00
  0.00000000E+00  0.00000000E+00  0.00000000E+00
  0.00000000E+00  0.00000000E+00  0.00000000E+00
  0.00000000E+00  0.00000000E+00  0.00000000E+00
  0.00000000E+00  0.00000000E+00  0.00000000E+00
  0.00000000E+00  0.00000000E+00  0.00000000E+00
  0.00000000E+00  0.00000000E+00  0.00000000E+00
  0.00000000E+00  0.00000000E+00  0.00000000E+00
  0.00000000E+00  0.00000000E+00  0.00000000E+00
  0.00000000E+00  0.00000000E+00  0.00000000E+00
  0.00000000E+00  0.00000000E+00  0.00000000E+00
  0.00000000E+00  0.00000000E+00  0.00000000E+00
  0.00000000E+00  0.00000000E+00  0.00000000E+00
  0.00000000E+00  0.00000000E+00  0.00000000E+00
  0.00000000E+00  0.00000000E+00  0.00000000E+00
  0.00000000E+00  0.00000000E+00  0.00000000E+00
  0.00000000E+00  0.00000000E+00  0.00000000E+00
  0.00000000E+00  0.00000000E+00  0.00000000E+00
  0.00000000E+00  0.00000000E+00  0.00000000E+00
  0.00000000E+00  0.00000000E+00  0.00000000E+00
  0.00000000E+00  0.00000000E+00  0.00000000E+00
