Al Co  S                                
   1.00000000000000     
     9.6027250953742751    0.0000000000000000    0.0000000000000000
     0.0000000000000000    9.6027250953742751    0.0000000000000000
     0.0000000000000000    0.0000000000000000    9.6027250953742751
   Al   Co   S 
     7    16    32
Direct
 -0.0000000000000000  0.0000000000000000 -0.0000000000000000
  0.2481668673058138  0.7481668673058137  0.7481668673058137
  0.5000000000000000  0.0000000000000000  0.5000000000000000
  0.5000000000000000  0.5000000000000000 -0.0000000000000000
  0.7518331326941863  0.2518331326941861  0.7481668673058137
  0.7518331326941863  0.7481668673058137  0.2518331326941861
  0.2481668673058138  0.2518331326941861  0.2518331326941861
  0.1272852229323441  0.1262158147972590  0.6272852229323441
  0.8727147770676559  0.8737841852027408  0.6272852229323441
  0.3752667902997359  0.1247332097002642  0.8752667902997358
  0.6247332097002642  0.8752667902997358  0.8752667902997358
  0.1272852229323441  0.3727147770676558  0.8737841852027408
  0.8727147770676559  0.6272852229323441  0.8737841852027408
  0.3737841852027410  0.3727147770676558  0.6272852229323441
  0.6262158147972592  0.6272852229323441  0.6272852229323441
  0.3752667902997359  0.8752667902997358  0.1247332097002642
  0.3737841852027410  0.6272852229323441  0.3727147770676558
  0.1272852229323441  0.6272852229323441  0.1262158147972590
  0.1272852229323441  0.8737841852027408  0.3727147770676558
  0.8727147770676559  0.3727147770676558  0.1262158147972590
  0.8727147770676559  0.1262158147972590  0.3727147770676558
  0.6247332097002642  0.1247332097002642  0.1247332097002642
  0.6262158147972592  0.3727147770676558  0.3727147770676558
  0.1104063911505746  0.1136328593865197  0.3895936088494254
  0.6380997732704304  0.8619002267295696  0.6397112300307609
  0.3877984114328605  0.1122015885671395  0.1122015885671395
  0.8602887699692391  0.8619002267295696  0.8619002267295696
  0.1104063911505746  0.3895936088494254  0.1136328593865197
  0.6380997732704304  0.6397112300307609  0.8619002267295696
  0.3863671406134803  0.3895936088494254  0.3895936088494254
  0.8581298085726246  0.6418701914273754  0.6418701914273754
  0.1104063911505746  0.6104063911505747  0.8863671406134800
  0.3619002267295698  0.8619002267295696  0.3602887699692389
  0.1104063911505746  0.8863671406134800  0.6104063911505747
  0.3619002267295698  0.6397112300307609  0.1380997732704302
  0.3877984114328605  0.8877984114328604  0.8877984114328604
  0.1418701914273753  0.6418701914273754  0.3581298085726247
  0.3863671406134803  0.6104063911505747  0.6104063911505747
  0.1397112300307611  0.8619002267295696  0.1380997732704302
  0.6122015885671396  0.1122015885671395  0.8877984114328604
  0.3619002267295698  0.1380997732704302  0.6397112300307609
  0.8895936088494253  0.3895936088494254  0.8863671406134800
  0.1418701914273753  0.3581298085726247  0.6418701914273754
  0.8895936088494253  0.1136328593865197  0.6104063911505747
  0.1397112300307611  0.1380997732704302  0.8619002267295696
  0.6136328593865200  0.3895936088494254  0.6104063911505747
  0.3619002267295698  0.3602887699692389  0.8619002267295696
  0.6136328593865200  0.6104063911505747  0.3895936088494254
  0.8895936088494253  0.6104063911505747  0.1136328593865197
  0.6122015885671396  0.8877984114328604  0.1122015885671395
  0.8895936088494253  0.8863671406134800  0.3895936088494254
  0.8581298085726246  0.3581298085726247  0.3581298085726247
  0.8602887699692391  0.1380997732704302  0.1380997732704302
  0.6380997732704304  0.1380997732704302  0.3602887699692389
  0.6380997732704304  0.3602887699692389  0.1380997732704302
 
  0.00000000E+00  0.00000000E+00  0.00000000E+00
  0.00000000E+00  0.00000000E+00  0.00000000E+00
  0.00000000E+00  0.00000000E+00  0.00000000E+00
  0.00000000E+00  0.00000000E+00  0.00000000E+00
  0.00000000E+00  0.00000000E+00  0.00000000E+00
  0.00000000E+00  0.00000000E+00  0.00000000E+00
  0.00000000E+00  0.00000000E+00  0.00000000E+00
  0.00000000E+00  0.00000000E+00  0.00000000E+00
  0.00000000E+00  0.00000000E+00  0.00000000E+00
  0.00000000E+00  0.00000000E+00  0.00000000E+00
  0.00000000E+00  0.00000000E+00  0.00000000E+00
  0.00000000E+00  0.00000000E+00  0.00000000E+00
  0.00000000E+00  0.00000000E+00  0.00000000E+00
  0.00000000E+00  0.00000000E+00  0.00000000E+00
  0.00000000E+00  0.00000000E+00  0.00000000E+00
  0.00000000E+00  0.00000000E+00  0.00000000E+00
  0.00000000E+00  0.00000000E+00  0.00000000E+00
  0.00000000E+00  0.00000000E+00  0.00000000E+00
  0.00000000E+00  0.00000000E+00  0.00000000E+00
  0.00000000E+00  0.00000000E+00  0.00000000E+00
  0.00000000E+00  0.00000000E+00  0.00000000E+00
  0.00000000E+00  0.00000000E+00  0.00000000E+00
  0.00000000E+00  0.00000000E+00  0.00000000E+00
  0.00000000E+00  0.00000000E+00  0.00000000E+00
  0.00000000E+00  0.00000000E+00  0.00000000E+00
  0.00000000E+00  0.00000000E+00  0.00000000E+00
  0.00000000E+00  0.00000000E+00  0.00000000E+00
  0.00000000E+00  0.00000000E+00  0.00000000E+00
  0.00000000E+00  0.00000000E+00  0.00000000E+00
  0.00000000E+00  0.00000000E+00  0.00000000E+00
  0.00000000E+00  0.00000000E+00  0.00000000E+00
  0.00000000E+00  0.00000000E+00  0.00000000E+00
  0.00000000E+00  0.00000000E+00  0.00000000E+00
  0.00000000E+00  0.00000000E+00  0.00000000E+00
  0.00000000E+00  0.00000000E+00  0.00000000E+00
  0.00000000E+00  0.00000000E+00  0.00000000E+00
  0.00000000E+00  0.00000000E+00  0.00000000E+00
  0.00000000E+00  0.00000000E+00  0.00000000E+00
  0.00000000E+00  0.00000000E+00  0.00000000E+00
  0.00000000E+00  0.00000000E+00  0.00000000E+00
  0.00000000E+00  0.00000000E+00  0.00000000E+00
  0.00000000E+00  0.00000000E+00  0.00000000E+00
  0.00000000E+00  0.00000000E+00  0.00000000E+00
  0.00000000E+00  0.00000000E+00  0.00000000E+00
  0.00000000E+00  0.00000000E+00  0.00000000E+00
  0.00000000E+00  0.00000000E+00  0.00000000E+00
  0.00000000E+00  0.00000000E+00  0.00000000E+00
  0.00000000E+00  0.00000000E+00  0.00000000E+00
  0.00000000E+00  0.00000000E+00  0.00000000E+00
  0.00000000E+00  0.00000000E+00  0.00000000E+00
  0.00000000E+00  0.00000000E+00  0.00000000E+00
  0.00000000E+00  0.00000000E+00  0.00000000E+00
  0.00000000E+00  0.00000000E+00  0.00000000E+00
  0.00000000E+00  0.00000000E+00  0.00000000E+00
  0.00000000E+00  0.00000000E+00  0.00000000E+00
