#VASP INCAR file#
SYSTEM    = AlCo2S4
ALGO      = Normal
EDIFF     = 1e-5
EDIFFG    = -1e-2
ENCUT     = 520
IBRION    = 2
ICHARG    = 1
ISIF      = 2
ISMEAR    = -5
ISPIN     = 2
LMAXMIX   = 4
LORBIT    = 11
LREAL     = Auto
LWAVE     = False
LCHARG    = False
NELM      = 100
NSW       = 199
PREC      = Accurate
SIGMA     = 0.05
#Magnetic moment with FM spin alignment#
MAGMOM    = 7*0.6 16*5.0 32*0.6
