Al Co  S                                
   1.00000000000000     
     9.6027250953742751    0.0000000000000000    0.0000000000000000
     0.0000000000000000    9.6027250953742751    0.0000000000000000
     0.0000000000000000    0.0000000000000000    9.6027250953742751
   Al   Co   S 
     7    16    32
Direct
  0.0002216536773558 -0.0001623565701224 -0.0001623565701224
  0.2481371204884692  0.7497349340864309  0.7497349340864309
  0.5001623565701220 -0.0001623565701224  0.4997783463226442
  0.5001623565701220  0.4997783463226442 -0.0001623565701224
  0.7502650659135691  0.2518628795115307  0.7497349340864309
  0.7502650659135691  0.7497349340864309  0.2518628795115307
  0.1991036532654130  0.3008963467345870  0.3008963467345870
  0.1259745563528028  0.1242856144756690  0.6286702386907004
  0.8724023737590061  0.8734391293516284  0.6275976262409939
  0.3761618671802489  0.1238381328197509  0.8777393851833637
  0.6248588456880212  0.8751411543119788  0.8751411543119788
  0.1270894883020415  0.3729105116979584  0.8713137813072110
  0.8724023737590061  0.6275976262409939  0.8734391293516284
  0.3757143855243309  0.3740254436471970  0.6286702386907004
  0.6265608706483716  0.6275976262409939  0.6275976262409939
  0.3761618671802489  0.8777393851833637  0.1238381328197509
  0.3757143855243309  0.6286702386907004  0.3740254436471970
  0.1259745563528028  0.6286702386907004  0.1242856144756690
  0.1270894883020415  0.8713137813072110  0.3729105116979584
  0.8713297613092996  0.3740254436471970  0.1242856144756690
  0.8713297613092996  0.1242856144756690  0.3740254436471970
  0.6222606148166363  0.1238381328197509  0.1238381328197509
  0.6286862186927890  0.3729105116979584  0.3729105116979584
  0.1051944218039445  0.1101011325111672  0.3948055781960554
  0.6380942886594716  0.8619057113405284  0.6395836790630065
  0.3871579036141510  0.1128420963858490  0.1128420963858490
  0.8604163209369935  0.8619057113405284  0.8619057113405284
  0.1051944218039445  0.3948055781960554  0.1101011325111672
  0.6380942886594716  0.6395836790630065  0.8619057113405284
  0.3898988674888327  0.3948055781960554  0.3948055781960554
  0.8582983371514887  0.6417016628485113  0.6417016628485113
  0.1099011150195552  0.6110670422895241  0.8852481034201758
  0.3619257666134652  0.8627722829437684  0.3595576162756080
  0.1099011150195552  0.8852481034201758  0.6110670422895241
  0.3622147147937166  0.6395218582435116  0.1377852852062836
  0.3886958368494058  0.8884890478314957  0.8884890478314957
  0.1429648967793536  0.6369076626449229  0.3570351032206464
  0.3872409509416326  0.6126154651354772  0.6126154651354772
  0.1404423837243920  0.8627722829437684  0.1380742333865348
  0.6115109521685043  0.1113041631505944  0.8884890478314957
  0.3622147147937166  0.1377852852062836  0.6395218582435116
  0.8889329577104759  0.3900988849804448  0.8852481034201758
  0.1429648967793536  0.3570351032206464  0.6369076626449229
  0.8873845348645228  0.1127590490583673  0.6126154651354772
  0.1404423837243920  0.1380742333865348  0.8627722829437684
  0.6147518965798242  0.3900988849804448  0.6110670422895241
  0.3619257666134652  0.3595576162756080  0.8627722829437684
  0.6147518965798242  0.6110670422895241  0.3900988849804448
  0.8873845348645228  0.6126154651354772  0.1127590490583673
  0.6115109521685043  0.8884890478314957  0.1113041631505944
  0.8889329577104759  0.8852481034201758  0.3900988849804448
  0.8630923373550771  0.3570351032206464  0.3570351032206464
  0.8604781417564884  0.1377852852062836  0.1377852852062836
  0.6372277170562316  0.1380742333865348  0.3595576162756080
  0.6372277170562316  0.3595576162756080  0.1380742333865348
 
  0.00000000E+00  0.00000000E+00  0.00000000E+00
  0.00000000E+00  0.00000000E+00  0.00000000E+00
  0.00000000E+00  0.00000000E+00  0.00000000E+00
  0.00000000E+00  0.00000000E+00  0.00000000E+00
  0.00000000E+00  0.00000000E+00  0.00000000E+00
  0.00000000E+00  0.00000000E+00  0.00000000E+00
  0.00000000E+00  0.00000000E+00  0.00000000E+00
  0.00000000E+00  0.00000000E+00  0.00000000E+00
  0.00000000E+00  0.00000000E+00  0.00000000E+00
  0.00000000E+00  0.00000000E+00  0.00000000E+00
  0.00000000E+00  0.00000000E+00  0.00000000E+00
  0.00000000E+00  0.00000000E+00  0.00000000E+00
  0.00000000E+00  0.00000000E+00  0.00000000E+00
  0.00000000E+00  0.00000000E+00  0.00000000E+00
  0.00000000E+00  0.00000000E+00  0.00000000E+00
  0.00000000E+00  0.00000000E+00  0.00000000E+00
  0.00000000E+00  0.00000000E+00  0.00000000E+00
  0.00000000E+00  0.00000000E+00  0.00000000E+00
  0.00000000E+00  0.00000000E+00  0.00000000E+00
  0.00000000E+00  0.00000000E+00  0.00000000E+00
  0.00000000E+00  0.00000000E+00  0.00000000E+00
  0.00000000E+00  0.00000000E+00  0.00000000E+00
  0.00000000E+00  0.00000000E+00  0.00000000E+00
  0.00000000E+00  0.00000000E+00  0.00000000E+00
  0.00000000E+00  0.00000000E+00  0.00000000E+00
  0.00000000E+00  0.00000000E+00  0.00000000E+00
  0.00000000E+00  0.00000000E+00  0.00000000E+00
  0.00000000E+00  0.00000000E+00  0.00000000E+00
  0.00000000E+00  0.00000000E+00  0.00000000E+00
  0.00000000E+00  0.00000000E+00  0.00000000E+00
  0.00000000E+00  0.00000000E+00  0.00000000E+00
  0.00000000E+00  0.00000000E+00  0.00000000E+00
  0.00000000E+00  0.00000000E+00  0.00000000E+00
  0.00000000E+00  0.00000000E+00  0.00000000E+00
  0.00000000E+00  0.00000000E+00  0.00000000E+00
  0.00000000E+00  0.00000000E+00  0.00000000E+00
  0.00000000E+00  0.00000000E+00  0.00000000E+00
  0.00000000E+00  0.00000000E+00  0.00000000E+00
  0.00000000E+00  0.00000000E+00  0.00000000E+00
  0.00000000E+00  0.00000000E+00  0.00000000E+00
  0.00000000E+00  0.00000000E+00  0.00000000E+00
  0.00000000E+00  0.00000000E+00  0.00000000E+00
  0.00000000E+00  0.00000000E+00  0.00000000E+00
  0.00000000E+00  0.00000000E+00  0.00000000E+00
  0.00000000E+00  0.00000000E+00  0.00000000E+00
  0.00000000E+00  0.00000000E+00  0.00000000E+00
  0.00000000E+00  0.00000000E+00  0.00000000E+00
  0.00000000E+00  0.00000000E+00  0.00000000E+00
  0.00000000E+00  0.00000000E+00  0.00000000E+00
  0.00000000E+00  0.00000000E+00  0.00000000E+00
  0.00000000E+00  0.00000000E+00  0.00000000E+00
  0.00000000E+00  0.00000000E+00  0.00000000E+00
  0.00000000E+00  0.00000000E+00  0.00000000E+00
  0.00000000E+00  0.00000000E+00  0.00000000E+00
  0.00000000E+00  0.00000000E+00  0.00000000E+00
