POSCAR file for Cu_3x3x5.xsd | Created o
   1.00000000000000     
     5.4128999999999996   -5.4128999999999996   -0.0000000000000013
     0.0000000000000000    5.4128999999999996   -5.4128999999999996
    10.5849693585628994   10.5849693585628994   10.5849693585628994
   Cu   Rh   C    H 
    44     1     1     4
Selective dynamics
Direct
  0.2222222222222214  0.1111111111111143  0.0000000000000000   F   F   F
  0.2222222222222214  0.4444444444444429  0.0000000000000000   F   F   F
  0.2222222222222214  0.7777777777777786  0.0000000000000000   F   F   F
  0.5555555555555571  0.1111111111111143  0.0000000000000000   F   F   F
  0.5555555555555571  0.4444444444444429  0.0000000000000000   F   F   F
  0.5555555555555571  0.7777777777777786  0.0000000000000000   F   F   F
  0.8888888888888928  0.1111111111111143  0.0000000000000000   F   F   F
  0.8888888888888928  0.4444444444444429  0.0000000000000000   F   F   F
  0.8888888888888928  0.7777777777777786  0.0000000000000000   F   F   F
  0.0000000000000000  0.0000000000000000  0.1136391260021554   F   F   F
  0.0000000000000000  0.3333333333333357  0.1136391260021554   F   F   F
  0.0000000000000000  0.6666666666666643  0.1136391260021554   F   F   F
  0.3333333333333357  0.0000000000000000  0.1136391260021554   F   F   F
  0.3333333333333357  0.3333333333333357  0.1136391260021554   F   F   F
  0.3333333333333357  0.6666666666666643  0.1136391260021554   F   F   F
  0.6666666666666643  0.0000000000000000  0.1136391260021554   F   F   F
  0.6666666666666643  0.3333333333333357  0.1136391260021554   F   F   F
  0.6666666666666643  0.6666666666666643  0.1136391260021554   F   F   F
  0.9989505142072190 -0.0018197781477772  0.4537287896667611   T   T   T
  0.2236251281521940  0.1119167387948849  0.3398181876732797   T   T   T
  0.1110273242088370  0.2222882616601615  0.2267706227652313   T   T   T
  0.3349899183672290 -0.0018794995837793  0.4539176313896380   T   T   T
  0.5565357103192450  0.1123977792520695  0.3406564206258114   T   T   T
  0.4456756658881562  0.2221850182359409  0.2267470516801220   T   T   T
  0.6685584564587015  0.0012614302947959  0.4535718830920532   T   T   T
  0.8910454494739881  0.1124726570390791  0.3406466492034764   T   T   T
  0.7787935244573549  0.2231729081044026  0.2275480177939651   T   T   T
  0.9989979285571022  0.3349058832590196  0.4538430291678783   T   T   T
  0.2235364783136969  0.4454716568282574  0.3397947471900018   T   T   T
  0.1123799357864372  0.5556640442646970  0.2271912774555086   T   T   T
  0.5572983875567584  0.4455381278305027  0.3396050829750715   T   T   T
  0.4456946524418133  0.5571072342881153  0.2267504418469277   T   T   T
  0.6719126334357969  0.3346925171652307  0.4537066498154227   T   T   T
  0.8901353868696659  0.4450999572212598  0.3402455606985481   T   T   T
  0.7778344921736032  0.5557010508997878  0.2270877894609657   T   T   T
  0.0019010224261412  0.6680240084633574  0.4534534766325883   T   T   T
  0.2241028171968434  0.7789993811721726  0.3402278288482707   T   T   T
  0.1124000392245336  0.8903508694881381  0.2271847616937022   T   T   T
  0.3349084215046810  0.6709979520808905  0.4538222950133486   T   T   T
  0.5565479604918409  0.7780369375011430  0.3406086297201872   T   T   T
  0.4449400475436651  0.8892883246572322  0.2275255675486019   T   T   T
  0.6719686734845518  0.6712615063922978  0.4535938235550970   T   T   T
  0.8901683574069063  0.7789184544387768  0.3401850809920146   T   T   T
  0.7788088020136653  0.8892471068309818  0.2275253430684754   T   T   T
  0.3357791027725552  0.3349944484062119  0.4563330689113472   T   T   T
  0.3272702895275931  0.3321829760325977  0.6169158203681893   T   T   T
  0.3189705342550763  0.4570133558230917  0.6430687670585414   T   T   T
  0.4170762531535327  0.3933317487946784  0.5652299544648366   T   T   T
  0.4115536842335845  0.2810829394368059  0.6508772547966626   T   T   T
  0.1750437760867080  0.2060654835112760  0.6059823864995697   T   T   T
 
  0.00000000E+00  0.00000000E+00  0.00000000E+00
  0.00000000E+00  0.00000000E+00  0.00000000E+00
  0.00000000E+00  0.00000000E+00  0.00000000E+00
  0.00000000E+00  0.00000000E+00  0.00000000E+00
  0.00000000E+00  0.00000000E+00  0.00000000E+00
  0.00000000E+00  0.00000000E+00  0.00000000E+00
  0.00000000E+00  0.00000000E+00  0.00000000E+00
  0.00000000E+00  0.00000000E+00  0.00000000E+00
  0.00000000E+00  0.00000000E+00  0.00000000E+00
  0.00000000E+00  0.00000000E+00  0.00000000E+00
  0.00000000E+00  0.00000000E+00  0.00000000E+00
  0.00000000E+00  0.00000000E+00  0.00000000E+00
  0.00000000E+00  0.00000000E+00  0.00000000E+00
  0.00000000E+00  0.00000000E+00  0.00000000E+00
  0.00000000E+00  0.00000000E+00  0.00000000E+00
  0.00000000E+00  0.00000000E+00  0.00000000E+00
  0.00000000E+00  0.00000000E+00  0.00000000E+00
  0.00000000E+00  0.00000000E+00  0.00000000E+00
  0.00000000E+00  0.00000000E+00  0.00000000E+00
  0.00000000E+00  0.00000000E+00  0.00000000E+00
  0.00000000E+00  0.00000000E+00  0.00000000E+00
  0.00000000E+00  0.00000000E+00  0.00000000E+00
  0.00000000E+00  0.00000000E+00  0.00000000E+00
  0.00000000E+00  0.00000000E+00  0.00000000E+00
  0.00000000E+00  0.00000000E+00  0.00000000E+00
  0.00000000E+00  0.00000000E+00  0.00000000E+00
  0.00000000E+00  0.00000000E+00  0.00000000E+00
  0.00000000E+00  0.00000000E+00  0.00000000E+00
  0.00000000E+00  0.00000000E+00  0.00000000E+00
  0.00000000E+00  0.00000000E+00  0.00000000E+00
  0.00000000E+00  0.00000000E+00  0.00000000E+00
  0.00000000E+00  0.00000000E+00  0.00000000E+00
  0.00000000E+00  0.00000000E+00  0.00000000E+00
  0.00000000E+00  0.00000000E+00  0.00000000E+00
  0.00000000E+00  0.00000000E+00  0.00000000E+00
  0.00000000E+00  0.00000000E+00  0.00000000E+00
  0.00000000E+00  0.00000000E+00  0.00000000E+00
  0.00000000E+00  0.00000000E+00  0.00000000E+00
  0.00000000E+00  0.00000000E+00  0.00000000E+00
  0.00000000E+00  0.00000000E+00  0.00000000E+00
  0.00000000E+00  0.00000000E+00  0.00000000E+00
  0.00000000E+00  0.00000000E+00  0.00000000E+00
  0.00000000E+00  0.00000000E+00  0.00000000E+00
  0.00000000E+00  0.00000000E+00  0.00000000E+00
  0.00000000E+00  0.00000000E+00  0.00000000E+00
  0.00000000E+00  0.00000000E+00  0.00000000E+00
  0.00000000E+00  0.00000000E+00  0.00000000E+00
  0.00000000E+00  0.00000000E+00  0.00000000E+00
  0.00000000E+00  0.00000000E+00  0.00000000E+00
  0.00000000E+00  0.00000000E+00  0.00000000E+00
