Al Co  S                                
   1.00000000000000     
     9.6027250953742751    0.0000000000000000    0.0000000000000000
     0.0000000000000000    9.6027250953742751    0.0000000000000000
     0.0000000000000000    0.0000000000000000    9.6027250953742751
   Al   Co   S 
     7    16    32
Direct
  0.0011108213309502  0.0000711290216712  0.0000711290216712
  0.2478013266364428  0.7494949758192720  0.7494949758192720
  0.4999288709783289  0.0000711290216712  0.4988891786690499
  0.4999288709783289  0.4988891786690499  0.0000711290216712
  0.7505050241807280  0.2521986733635574  0.7494949758192720
  0.7505050241807280  0.7494949758192720  0.2521986733635574
  0.1484266223779968  0.3515733776220031  0.3515733776220031
  0.1255329507372490  0.1233272051914615  0.6267014762428459
  0.8726513335508007  0.8734294229460779  0.6273486664491993
  0.3773568747019443  0.1226431252980556  0.8770446562720097
  0.6252711443952539  0.8747288556047461  0.8747288556047461
  0.1267414463043372  0.3732585536956628  0.8719300985941667
  0.8726513335508007  0.6273486664491993  0.8734294229460779
  0.3766727948085385  0.3744670492627511  0.6267014762428459
  0.6265705770539221  0.6273486664491993  0.6273486664491993
  0.3773568747019443  0.8770446562720097  0.1226431252980556
  0.3766727948085385  0.6267014762428459  0.3744670492627511
  0.1255329507372490  0.6267014762428459  0.1233272051914615
  0.1267414463043372  0.8719300985941667  0.3732585536956628
  0.8732985237571541  0.3744670492627511  0.1233272051914615
  0.8732985237571541  0.1233272051914615  0.3744670492627511
  0.6229553437279903  0.1226431252980556  0.1226431252980556
  0.6280699014058333  0.3732585536956628  0.3732585536956628
  0.1070577687240322  0.1145399581944047  0.3929422312759677
  0.6382240279268980  0.8617759720731020  0.6390232420824388
  0.3907113544239266  0.1092886455760735  0.1092886455760735
  0.8609767579175612  0.8617759720731020  0.8617759720731020
  0.1070577687240322  0.3929422312759677  0.1145399581944047
  0.6382240279268980  0.6390232420824388  0.8617759720731020
  0.3854600418055953  0.3929422312759677  0.3929422312759677
  0.8585219271091626  0.6414780728908374  0.6414780728908374
  0.1100270803052561  0.6102680604134313  0.8858889551735948
  0.3618485812502351  0.8622345064144148  0.3592839527852065
  0.1100270803052561  0.8858889551735948  0.6102680604134313
  0.3621865834086191  0.6382669350618575  0.1378134165913811
  0.3892286475049774  0.8879136256187483  0.8879136256187483
  0.1430442182383150  0.6292147688363102  0.3569557817616850
  0.3875577892992190  0.6121748431530636  0.6121748431530636
  0.1407160472147937  0.8622345064144148  0.1381514187497649
  0.6120863743812517  0.1107713524950225  0.8879136256187483
  0.3621865834086191  0.1378134165913811  0.6382669350618575
  0.8897319395865687  0.3899729196947436  0.8858889551735948
  0.1430442182383150  0.3569557817616850  0.6292147688363102
  0.8878251568469364  0.1124422107007809  0.6121748431530636
  0.1407160472147937  0.1381514187497649  0.8622345064144148
  0.6141110448264052  0.3899729196947436  0.6102680604134313
  0.3618485812502351  0.3592839527852065  0.8622345064144148
  0.6141110448264052  0.6102680604134313  0.3899729196947436
  0.8878251568469364  0.6121748431530636  0.1124422107007809
  0.6120863743812517  0.8879136256187483  0.1107713524950225
  0.8897319395865687  0.8858889551735948  0.3899729196947436
  0.8707852311636898  0.3569557817616850  0.3569557817616850
  0.8617330649381425  0.1378134165913811  0.1378134165913811
  0.6377654935855852  0.1381514187497649  0.3592839527852065
  0.6377654935855852  0.3592839527852065  0.1381514187497649
 
  0.00000000E+00  0.00000000E+00  0.00000000E+00
  0.00000000E+00  0.00000000E+00  0.00000000E+00
  0.00000000E+00  0.00000000E+00  0.00000000E+00
  0.00000000E+00  0.00000000E+00  0.00000000E+00
  0.00000000E+00  0.00000000E+00  0.00000000E+00
  0.00000000E+00  0.00000000E+00  0.00000000E+00
  0.00000000E+00  0.00000000E+00  0.00000000E+00
  0.00000000E+00  0.00000000E+00  0.00000000E+00
  0.00000000E+00  0.00000000E+00  0.00000000E+00
  0.00000000E+00  0.00000000E+00  0.00000000E+00
  0.00000000E+00  0.00000000E+00  0.00000000E+00
  0.00000000E+00  0.00000000E+00  0.00000000E+00
  0.00000000E+00  0.00000000E+00  0.00000000E+00
  0.00000000E+00  0.00000000E+00  0.00000000E+00
  0.00000000E+00  0.00000000E+00  0.00000000E+00
  0.00000000E+00  0.00000000E+00  0.00000000E+00
  0.00000000E+00  0.00000000E+00  0.00000000E+00
  0.00000000E+00  0.00000000E+00  0.00000000E+00
  0.00000000E+00  0.00000000E+00  0.00000000E+00
  0.00000000E+00  0.00000000E+00  0.00000000E+00
  0.00000000E+00  0.00000000E+00  0.00000000E+00
  0.00000000E+00  0.00000000E+00  0.00000000E+00
  0.00000000E+00  0.00000000E+00  0.00000000E+00
  0.00000000E+00  0.00000000E+00  0.00000000E+00
  0.00000000E+00  0.00000000E+00  0.00000000E+00
  0.00000000E+00  0.00000000E+00  0.00000000E+00
  0.00000000E+00  0.00000000E+00  0.00000000E+00
  0.00000000E+00  0.00000000E+00  0.00000000E+00
  0.00000000E+00  0.00000000E+00  0.00000000E+00
  0.00000000E+00  0.00000000E+00  0.00000000E+00
  0.00000000E+00  0.00000000E+00  0.00000000E+00
  0.00000000E+00  0.00000000E+00  0.00000000E+00
  0.00000000E+00  0.00000000E+00  0.00000000E+00
  0.00000000E+00  0.00000000E+00  0.00000000E+00
  0.00000000E+00  0.00000000E+00  0.00000000E+00
  0.00000000E+00  0.00000000E+00  0.00000000E+00
  0.00000000E+00  0.00000000E+00  0.00000000E+00
  0.00000000E+00  0.00000000E+00  0.00000000E+00
  0.00000000E+00  0.00000000E+00  0.00000000E+00
  0.00000000E+00  0.00000000E+00  0.00000000E+00
  0.00000000E+00  0.00000000E+00  0.00000000E+00
  0.00000000E+00  0.00000000E+00  0.00000000E+00
  0.00000000E+00  0.00000000E+00  0.00000000E+00
  0.00000000E+00  0.00000000E+00  0.00000000E+00
  0.00000000E+00  0.00000000E+00  0.00000000E+00
  0.00000000E+00  0.00000000E+00  0.00000000E+00
  0.00000000E+00  0.00000000E+00  0.00000000E+00
  0.00000000E+00  0.00000000E+00  0.00000000E+00
  0.00000000E+00  0.00000000E+00  0.00000000E+00
  0.00000000E+00  0.00000000E+00  0.00000000E+00
  0.00000000E+00  0.00000000E+00  0.00000000E+00
  0.00000000E+00  0.00000000E+00  0.00000000E+00
  0.00000000E+00  0.00000000E+00  0.00000000E+00
  0.00000000E+00  0.00000000E+00  0.00000000E+00
  0.00000000E+00  0.00000000E+00  0.00000000E+00
