&CONTROL
  calculation='relax',
  prefix='calc',
  pseudo_dir='/nfs/slac/g/suncatfs/sw/external/esp-psp/v2',
  outdir='.',
  tefield=.true.,
  dipfield=.true.,
  tprnfor=.true.,
  disk_io='none',
/
&SYSTEM
  ibrav=0,
  celldm(1)=1.8897261245650618d0,
  nat=41,
  ntyp=5,
  ecutwfc=36.7493237909d0,
  ecutrho=367.493237909d0,
  nbnd=215,
  occupations='smearing',
  smearing='mv',
  degauss=0.00734986475817d0,
  input_dft='BEEF',
  edir=3,
  emaxpos=0.0342924950976d0,
  eopreg=0.025d0,
  eamp=0.0d0,
/
&ELECTRONS
  diagonalization='david',
  conv_thr=7.34986475817e-06,
  mixing_ndim=10,
  mixing_mode='local-TF',
  electron_maxstep=300,
  mixing_beta=0.1d0,
  conv_thr=7.34986475817e-06,
/
&IONS
  ion_dynamics='ase3',
/
CELL_PARAMETERS
    7.806466670766000d0     0.000000000000000d0     0.000000000000000d0
    0.000000000000000d0     6.373953345806000d0     0.000000000000000d0
    0.000000000000000d0     0.000000000000000d0    28.527096162408998d0
ATOMIC_SPECIES
Zn1 65.39d0 Zn.UPF
Cu1 63.546d0 Cu.UPF
O1 15.9994d0 O.UPF
C1 12.011d0 C.UPF
H1 1.00794d0 H.UPF
ATOMIC_POSITIONS {crystal}
Zn1      0.064891158175177d0     0.183174637186635d0     0.626870151600479d0
Cu1      0.430003165642286d0     0.169416180866382d0     0.622238928031084d0
Cu1      0.748336193064929d0     0.162968507668678d0     0.619857201267991d0
Cu1      0.250792457723435d0     0.836032114366103d0     0.595072879159447d0
Cu1      0.583991683979009d0     0.836893864906468d0     0.594918902415030d0
Cu1      0.917301784046750d0     0.838028135403661d0     0.595257666489246d0
Cu1      0.083293139402282d0     0.512040393315893d0     0.570200729002175d0
Cu1      0.417732789631673d0     0.508320356915072d0     0.570911587445125d0
Cu1      0.749614626574056d0     0.508522105767977d0     0.571763927782608d0
Cu1      0.249611770126338d0     0.178751148577988d0     0.544979726356742d0
Cu1      0.581294515556145d0     0.177181274120594d0     0.544527199538602d0
Cu1      0.919934116687114d0     0.179615695849450d0     0.544664113068305d0
Cu1      0.083950343428356d0     0.841837076134640d0     0.517502935051613d0
Cu1      0.416544202208002d0     0.840228502021987d0     0.517589573616979d0
Cu1      0.750788928187299d0     0.840438682394976d0     0.517434056175935d0
Cu1      0.250366793638304d0     0.505959848362856d0     0.491328245393964d0
Cu1      0.583901682760236d0     0.506126147612391d0     0.491552326559986d0
Cu1      0.915922045444850d0     0.506396806586007d0     0.491348139323599d0
Cu1      0.083332876627320d0     0.172011732011520d0     0.465857928974722d0
Cu1      0.416665876627326d0     0.172011732011520d0     0.465857928974722d0
Cu1      0.749999876627332d0     0.172011732011520d0     0.465857928974722d0
Cu1      0.249998876627323d0     0.838678732011604d0     0.439526066573635d0
Cu1      0.583332876627329d0     0.838678732011604d0     0.439526066573635d0
Cu1      0.916665876627335d0     0.838678732011604d0     0.439526066573635d0
Cu1      0.083332876627320d0     0.505344732011562d0     0.413193549932277d0
Cu1      0.416665876627326d0     0.505344732011562d0     0.413193549932277d0
Cu1      0.749999876627332d0     0.505344732011562d0     0.413193549932277d0
Cu1      0.249998876627323d0     0.172011732011520d0     0.386861687531190d0
Cu1      0.583332876627329d0     0.172011732011520d0     0.386861687531190d0
Cu1      0.916665876627335d0     0.172011732011520d0     0.386861687531190d0
Cu1      0.083332876627320d0     0.838678732011604d0     0.360529825130102d0
Cu1      0.416665876627326d0     0.838678732011604d0     0.360529825130102d0
Cu1      0.749999876627332d0     0.838678732011604d0     0.360529825130102d0
Cu1      0.249998876627323d0     0.505344732011562d0     0.334197308488745d0
Cu1      0.583332876627329d0     0.505344732011562d0     0.334197308488745d0
Cu1      0.916665876627335d0     0.505344732011562d0     0.334197308488745d0
O1       0.252764454992566d0     0.185845938638874d0     0.668280675349642d0
C1       0.356913583720436d0     0.168260494360127d0     0.715093023967272d0
H1       0.355348476704104d0     0.315884128908928d0     0.734387681706390d0
H1       0.244476297007245d0     0.076510799065289d0     0.725207054347403d0
H1       0.470545284140483d0     0.080177307328834d0     0.725324975356288d0
K_POINTS automatic
4 4 1 0 0 0
