Al Co  S                                
   1.00000000000000     
     9.6027250953742751    0.0000000000000000    0.0000000000000000
     0.0000000000000000    9.6027250953742751    0.0000000000000000
     0.0000000000000000    0.0000000000000000    9.6027250953742751
   Al   Co   S 
     7    16    32
Direct
 -0.0003274542502800 -0.0000682992109242 -0.0000682992109242
  0.2484764547774210  0.7503010356931760  0.7503010356931760
  0.5000682992109240 -0.0000682992109242  0.5003274542502799
  0.5000682992109240  0.5003274542502799 -0.0000682992109242
  0.7496989643068240  0.2515235452225792  0.7503010356931760
  0.7496989643068240  0.7503010356931760  0.2515235452225792
  0.2244798182789837  0.2755201817210163  0.2755201817210163
  0.1259526229911583  0.1251723707413645  0.6295494495964034
  0.8723025839481137  0.8734306227238503  0.6276974160518863
  0.3745462376898929  0.1254537623101072  0.8788517371334935
  0.6243596917017191  0.8756403082982809  0.8756403082982809
  0.1268759681261465  0.3731240318738534  0.8726766315158176
  0.8723025839481137  0.6276974160518863  0.8734306227238503
  0.3748276292586355  0.3740473770088414  0.6295494495964034
  0.6265693772761497  0.6276974160518863  0.6276974160518863
  0.3745462376898929  0.8788517371334935  0.1254537623101072
  0.3748276292586355  0.6295494495964034  0.3740473770088414
  0.1259526229911583  0.6295494495964034  0.1251723707413645
  0.1268759681261465  0.8726766315158176  0.3731240318738534
  0.8704505504035966  0.3740473770088414  0.1251723707413645
  0.8704505504035966  0.1251723707413645  0.3740473770088414
  0.6211482628665065  0.1254537623101072  0.1254537623101072
  0.6273233684841824  0.3731240318738534  0.3731240318738534
  0.1049689012562373  0.1123250511899604  0.3950310987437628
  0.6380224541436579  0.8619775458563421  0.6399809566499960
  0.3811044449166095  0.1188955550833904  0.1188955550833904
  0.8600190433500040  0.8619775458563421  0.8619775458563421
  0.1049689012562373  0.3950310987437628  0.1123250511899604
  0.6380224541436579  0.6399809566499960  0.8619775458563421
  0.3876749488100398  0.3950310987437628  0.3950310987437628
  0.8583060423077765  0.6416939576922235  0.6416939576922235
  0.1098733739740716  0.6113074596303082  0.8855551368411670
  0.3617302149894591  0.8633172317767622  0.3600151955432269
  0.1098733739740716  0.8855551368411670  0.6113074596303082
  0.3622071926356834  0.6408972160542138  0.1377928073643166
  0.3878901037979509  0.8897424099469553  0.8897424099469553
  0.1427168371336164  0.6405851260984337  0.3572831628663839
  0.3871216253833362  0.6128885560521468  0.6128885560521468
  0.1399848044567731  0.8633172317767622  0.1382697850105412
  0.6102575900530447  0.1121098962020490  0.8897424099469553
  0.3622071926356834  0.1377928073643166  0.6408972160542138
  0.8886925403696918  0.3901266260259297  0.8855551368411670
  0.1427168371336164  0.3572831628663839  0.6405851260984337
  0.8871114439478532  0.1128783746166638  0.6128885560521468
  0.1399848044567731  0.1382697850105412  0.8633172317767622
  0.6144448631588330  0.3901266260259297  0.6113074596303082
  0.3617302149894591  0.3600151955432269  0.8633172317767622
  0.6144448631588330  0.6113074596303082  0.3901266260259297
  0.8871114439478532  0.6128885560521468  0.1128783746166638
  0.6102575900530447  0.8897424099469553  0.1121098962020490
  0.8886925403696918  0.8855551368411670  0.3901266260259297
  0.8594148739015663  0.3572831628663839  0.3572831628663839
  0.8591027839457862  0.1377928073643166  0.1377928073643166
  0.6366827682232378  0.1382697850105412  0.3600151955432269
  0.6366827682232378  0.3600151955432269  0.1382697850105412
 
  0.00000000E+00  0.00000000E+00  0.00000000E+00
  0.00000000E+00  0.00000000E+00  0.00000000E+00
  0.00000000E+00  0.00000000E+00  0.00000000E+00
  0.00000000E+00  0.00000000E+00  0.00000000E+00
  0.00000000E+00  0.00000000E+00  0.00000000E+00
  0.00000000E+00  0.00000000E+00  0.00000000E+00
  0.00000000E+00  0.00000000E+00  0.00000000E+00
  0.00000000E+00  0.00000000E+00  0.00000000E+00
  0.00000000E+00  0.00000000E+00  0.00000000E+00
  0.00000000E+00  0.00000000E+00  0.00000000E+00
  0.00000000E+00  0.00000000E+00  0.00000000E+00
  0.00000000E+00  0.00000000E+00  0.00000000E+00
  0.00000000E+00  0.00000000E+00  0.00000000E+00
  0.00000000E+00  0.00000000E+00  0.00000000E+00
  0.00000000E+00  0.00000000E+00  0.00000000E+00
  0.00000000E+00  0.00000000E+00  0.00000000E+00
  0.00000000E+00  0.00000000E+00  0.00000000E+00
  0.00000000E+00  0.00000000E+00  0.00000000E+00
  0.00000000E+00  0.00000000E+00  0.00000000E+00
  0.00000000E+00  0.00000000E+00  0.00000000E+00
  0.00000000E+00  0.00000000E+00  0.00000000E+00
  0.00000000E+00  0.00000000E+00  0.00000000E+00
  0.00000000E+00  0.00000000E+00  0.00000000E+00
  0.00000000E+00  0.00000000E+00  0.00000000E+00
  0.00000000E+00  0.00000000E+00  0.00000000E+00
  0.00000000E+00  0.00000000E+00  0.00000000E+00
  0.00000000E+00  0.00000000E+00  0.00000000E+00
  0.00000000E+00  0.00000000E+00  0.00000000E+00
  0.00000000E+00  0.00000000E+00  0.00000000E+00
  0.00000000E+00  0.00000000E+00  0.00000000E+00
  0.00000000E+00  0.00000000E+00  0.00000000E+00
  0.00000000E+00  0.00000000E+00  0.00000000E+00
  0.00000000E+00  0.00000000E+00  0.00000000E+00
  0.00000000E+00  0.00000000E+00  0.00000000E+00
  0.00000000E+00  0.00000000E+00  0.00000000E+00
  0.00000000E+00  0.00000000E+00  0.00000000E+00
  0.00000000E+00  0.00000000E+00  0.00000000E+00
  0.00000000E+00  0.00000000E+00  0.00000000E+00
  0.00000000E+00  0.00000000E+00  0.00000000E+00
  0.00000000E+00  0.00000000E+00  0.00000000E+00
  0.00000000E+00  0.00000000E+00  0.00000000E+00
  0.00000000E+00  0.00000000E+00  0.00000000E+00
  0.00000000E+00  0.00000000E+00  0.00000000E+00
  0.00000000E+00  0.00000000E+00  0.00000000E+00
  0.00000000E+00  0.00000000E+00  0.00000000E+00
  0.00000000E+00  0.00000000E+00  0.00000000E+00
  0.00000000E+00  0.00000000E+00  0.00000000E+00
  0.00000000E+00  0.00000000E+00  0.00000000E+00
  0.00000000E+00  0.00000000E+00  0.00000000E+00
  0.00000000E+00  0.00000000E+00  0.00000000E+00
  0.00000000E+00  0.00000000E+00  0.00000000E+00
  0.00000000E+00  0.00000000E+00  0.00000000E+00
  0.00000000E+00  0.00000000E+00  0.00000000E+00
  0.00000000E+00  0.00000000E+00  0.00000000E+00
  0.00000000E+00  0.00000000E+00  0.00000000E+00
