&CONTROL
  calculation='relax',
  prefix='calc',
  pseudo_dir='/nfs/slac/g/suncatfs/sw/external/esp-psp/v2',
  outdir='.',
  tefield=.true.,
  dipfield=.true.,
  tprnfor=.true.,
  disk_io='none',
/
&SYSTEM
  ibrav=0,
  celldm(1)=1.8897261245650618d0,
  nat=41,
  ntyp=5,
  ecutwfc=36.7493237909d0,
  ecutrho=367.493237909d0,
  nbnd=215,
  occupations='smearing',
  smearing='mv',
  degauss=0.00734986475817d0,
  input_dft='BEEF',
  edir=3,
  emaxpos=0.0313211131473d0,
  eopreg=0.025d0,
  eamp=0.0d0,
/
&ELECTRONS
  diagonalization='david',
  conv_thr=7.34986475817e-06,
  mixing_ndim=10,
  mixing_mode='local-TF',
  electron_maxstep=300,
  mixing_beta=0.1d0,
  conv_thr=7.34986475817e-06,
/
&IONS
  ion_dynamics='ase3',
/
CELL_PARAMETERS
    7.806466670766000d0     0.000000000000000d0     0.000000000000000d0
    0.000000000000000d0     6.373953345806000d0     0.000000000000000d0
    0.000000000000000d0     0.000000000000000d0    28.527096162408998d0
ATOMIC_SPECIES
Zn1 65.39d0 Zn.UPF
Cu1 63.546d0 Cu.UPF
O1 15.9994d0 O.UPF
C1 12.011d0 C.UPF
H1 1.00794d0 H.UPF
ATOMIC_POSITIONS {crystal}
Zn1      0.064294340281773d0     0.185323026951786d0     0.627551678184298d0
Cu1      0.431068935421953d0     0.171187155018083d0     0.621930948066706d0
Cu1      0.749467078254455d0     0.165494121816837d0     0.620581255250298d0
Cu1      0.250895287428560d0     0.835697542300044d0     0.596262392164536d0
Cu1      0.585361074505473d0     0.837796944624658d0     0.594812735456404d0
Cu1      0.917134191880861d0     0.837603993133878d0     0.594906692282592d0
Cu1      0.084299089736264d0     0.511902160390519d0     0.570322677322351d0
Cu1      0.418299586306671d0     0.509189589449569d0     0.570960184465488d0
Cu1      0.749925403032584d0     0.508805856402908d0     0.571654715794802d0
Cu1      0.249873066548034d0     0.179022617371072d0     0.544933742344459d0
Cu1      0.582967547419080d0     0.178042982292798d0     0.544607884504742d0
Cu1      0.920443494818750d0     0.179823659862057d0     0.544700819665657d0
Cu1      0.084913989757552d0     0.842043606650476d0     0.517767022013981d0
Cu1      0.416455462201544d0     0.840773852773927d0     0.517851065082853d0
Cu1      0.751061627897166d0     0.840951817224821d0     0.517399436449082d0
Cu1      0.250753288379772d0     0.506282642309044d0     0.491344931188602d0
Cu1      0.584059206395137d0     0.506552015269403d0     0.491495846193089d0
Cu1      0.916217788073111d0     0.506774993446547d0     0.491357626738259d0
Cu1      0.083332876627320d0     0.172011732011520d0     0.465857928974722d0
Cu1      0.416665876627326d0     0.172011732011520d0     0.465857928974722d0
Cu1      0.749999876627332d0     0.172011732011520d0     0.465857928974722d0
Cu1      0.249998876627323d0     0.838678732011604d0     0.439526066573635d0
Cu1      0.583332876627329d0     0.838678732011604d0     0.439526066573635d0
Cu1      0.916665876627335d0     0.838678732011604d0     0.439526066573635d0
Cu1      0.083332876627320d0     0.505344732011562d0     0.413193549932277d0
Cu1      0.416665876627326d0     0.505344732011562d0     0.413193549932277d0
Cu1      0.749999876627332d0     0.505344732011562d0     0.413193549932277d0
Cu1      0.249998876627323d0     0.172011732011520d0     0.386861687531190d0
Cu1      0.583332876627329d0     0.172011732011520d0     0.386861687531190d0
Cu1      0.916665876627335d0     0.172011732011520d0     0.386861687531190d0
Cu1      0.083332876627320d0     0.838678732011604d0     0.360529825130102d0
Cu1      0.416665876627326d0     0.838678732011604d0     0.360529825130102d0
Cu1      0.749999876627332d0     0.838678732011604d0     0.360529825130102d0
Cu1      0.249998876627323d0     0.505344732011562d0     0.334197308488745d0
Cu1      0.583332876627329d0     0.505344732011562d0     0.334197308488745d0
Cu1      0.916665876627335d0     0.505344732011562d0     0.334197308488745d0
O1       0.253613185073916d0     0.156561595895739d0     0.665219371588646d0
C1       0.459118289793266d0     0.169973221157427d0     0.710063968178098d0
H1       0.458556682113136d0     0.319582922557713d0     0.728444917805876d0
H1       0.345061167669219d0     0.081509878944307d0     0.720186364424507d0
H1       0.570253412698795d0     0.080360232361201d0     0.721323152105244d0
K_POINTS automatic
4 4 1 0 0 0
