POSCAR file for Cu_3x3x5.xsd | Created o
   1.00000000000000     
     5.4128999999999996   -5.4128999999999996   -0.0000000000000013
     0.0000000000000000    5.4128999999999996   -5.4128999999999996
    10.5849693585628994   10.5849693585628994   10.5849693585628994
   Cu   Rh   H 
    44     1     1
Selective dynamics
Direct
  0.2222222222222214  0.1111111111111143  0.0000000000000000   F   F   F
  0.2222222222222214  0.4444444444444429  0.0000000000000000   F   F   F
  0.2222222222222214  0.7777777777777786  0.0000000000000000   F   F   F
  0.5555555555555571  0.1111111111111143  0.0000000000000000   F   F   F
  0.5555555555555571  0.4444444444444429  0.0000000000000000   F   F   F
  0.5555555555555571  0.7777777777777786  0.0000000000000000   F   F   F
  0.8888888888888928  0.1111111111111143  0.0000000000000000   F   F   F
  0.8888888888888928  0.4444444444444429  0.0000000000000000   F   F   F
  0.8888888888888928  0.7777777777777786  0.0000000000000000   F   F   F
  0.0000000000000000  0.0000000000000000  0.1136391260021554   F   F   F
  0.0000000000000000  0.3333333333333357  0.1136391260021554   F   F   F
  0.0000000000000000  0.6666666666666643  0.1136391260021554   F   F   F
  0.3333333333333357  0.0000000000000000  0.1136391260021554   F   F   F
  0.3333333333333357  0.3333333333333357  0.1136391260021554   F   F   F
  0.3333333333333357  0.6666666666666643  0.1136391260021554   F   F   F
  0.6666666666666643  0.0000000000000000  0.1136391260021554   F   F   F
  0.6666666666666643  0.3333333333333357  0.1136391260021554   F   F   F
  0.6666666666666643  0.6666666666666643  0.1136391260021554   F   F   F
  0.9978642741863027  0.9987543070764509  0.4512635818036065   T   T   T
  0.2206400515683091  0.1097365777127258  0.3376736821477783   T   T   T
  0.1101321049222009  0.2221051047873930  0.2257319662224671   T   T   T
  0.3321267184700766  0.9987914819264357  0.4512064376048749   T   T   T
  0.5547126745965898  0.1127688427039951  0.3394472723387406   T   T   T
  0.4444187231908895  0.2221211576046061  0.2257487184024214   T   T   T
  0.6683824256890645  0.0055438975206173  0.4508597892636372   T   T   T
  0.8896740349053013  0.1127106093240326  0.3394630282066085   T   T   T
  0.7775016025624116  0.2225493853047348  0.2268146551115112   T   T   T
  0.9977984288452595  0.3361096125283120  0.4523631729908246   T   T   T
  0.2219640983946583  0.4455511174246468  0.3383445952244971   T   T   T
  0.1107903774018633  0.5559791275655886  0.2265478916785846   T   T   T
  0.5552272001039067  0.4455468028092244  0.3383668841007751   T   T   T
  0.4445279566037480  0.5566369149422741  0.2259889581256646   T   T   T
  0.6695319579694493  0.3361261121317928  0.4523628257872407   T   T   T
  0.8886197224503372  0.4455755931767029  0.3396707110071217   T   T   T
  0.7775860823239905  0.5559831919643899  0.2265728182090533   T   T   T
  0.0000235091682804  0.6688496404306159  0.4517253429729698   T   T   T
  0.2227980777462642  0.7775356081759285  0.3397867849882970   T   T   T
  0.1103388063362796  0.8882835897492061  0.2265593224114675   T   T   T
  0.3330361326603611  0.6725163018348768  0.4542277118505739   T   T   T
  0.5556987886783450  0.7797138890774604  0.3394160891868159   T   T   T
  0.4440593339926088  0.8893711579051667  0.2265669197107292   T   T   T
  0.6706408831827479  0.6724911217316336  0.4542536108728633   T   T   T
  0.8863611677205331  0.7775138162274406  0.3398100053174424   T   T   T
  0.7777501701190757  0.8893779980529734  0.2265677337007417   T   T   T
  0.3321151770146647  0.3330317933119621  0.4533242441217228   T   T   T
  0.4396006918917429  0.5484014989814718  0.5073127821235313   T   T   T
 
  0.00000000E+00  0.00000000E+00  0.00000000E+00
  0.00000000E+00  0.00000000E+00  0.00000000E+00
  0.00000000E+00  0.00000000E+00  0.00000000E+00
  0.00000000E+00  0.00000000E+00  0.00000000E+00
  0.00000000E+00  0.00000000E+00  0.00000000E+00
  0.00000000E+00  0.00000000E+00  0.00000000E+00
  0.00000000E+00  0.00000000E+00  0.00000000E+00
  0.00000000E+00  0.00000000E+00  0.00000000E+00
  0.00000000E+00  0.00000000E+00  0.00000000E+00
  0.00000000E+00  0.00000000E+00  0.00000000E+00
  0.00000000E+00  0.00000000E+00  0.00000000E+00
  0.00000000E+00  0.00000000E+00  0.00000000E+00
  0.00000000E+00  0.00000000E+00  0.00000000E+00
  0.00000000E+00  0.00000000E+00  0.00000000E+00
  0.00000000E+00  0.00000000E+00  0.00000000E+00
  0.00000000E+00  0.00000000E+00  0.00000000E+00
  0.00000000E+00  0.00000000E+00  0.00000000E+00
  0.00000000E+00  0.00000000E+00  0.00000000E+00
  0.00000000E+00  0.00000000E+00  0.00000000E+00
  0.00000000E+00  0.00000000E+00  0.00000000E+00
  0.00000000E+00  0.00000000E+00  0.00000000E+00
  0.00000000E+00  0.00000000E+00  0.00000000E+00
  0.00000000E+00  0.00000000E+00  0.00000000E+00
  0.00000000E+00  0.00000000E+00  0.00000000E+00
  0.00000000E+00  0.00000000E+00  0.00000000E+00
  0.00000000E+00  0.00000000E+00  0.00000000E+00
  0.00000000E+00  0.00000000E+00  0.00000000E+00
  0.00000000E+00  0.00000000E+00  0.00000000E+00
  0.00000000E+00  0.00000000E+00  0.00000000E+00
  0.00000000E+00  0.00000000E+00  0.00000000E+00
  0.00000000E+00  0.00000000E+00  0.00000000E+00
  0.00000000E+00  0.00000000E+00  0.00000000E+00
  0.00000000E+00  0.00000000E+00  0.00000000E+00
  0.00000000E+00  0.00000000E+00  0.00000000E+00
  0.00000000E+00  0.00000000E+00  0.00000000E+00
  0.00000000E+00  0.00000000E+00  0.00000000E+00
  0.00000000E+00  0.00000000E+00  0.00000000E+00
  0.00000000E+00  0.00000000E+00  0.00000000E+00
  0.00000000E+00  0.00000000E+00  0.00000000E+00
  0.00000000E+00  0.00000000E+00  0.00000000E+00
  0.00000000E+00  0.00000000E+00  0.00000000E+00
  0.00000000E+00  0.00000000E+00  0.00000000E+00
  0.00000000E+00  0.00000000E+00  0.00000000E+00
  0.00000000E+00  0.00000000E+00  0.00000000E+00
  0.00000000E+00  0.00000000E+00  0.00000000E+00
  0.00000000E+00  0.00000000E+00  0.00000000E+00
