POSCAR file for Cu_3x3x5.xsd | Created o
   1.00000000000000     
     5.4128999999999996   -5.4128999999999996   -0.0000000000000013
     0.0000000000000000    5.4128999999999996   -5.4128999999999996
    10.5849693585628994   10.5849693585628994   10.5849693585628994
   Cu   Rh   H 
    44     1     1
Selective dynamics
Direct
  0.2222222222222214  0.1111111111111143  0.0000000000000000   F   F   F
  0.2222222222222214  0.4444444444444429  0.0000000000000000   F   F   F
  0.2222222222222214  0.7777777777777786  0.0000000000000000   F   F   F
  0.5555555555555571  0.1111111111111143  0.0000000000000000   F   F   F
  0.5555555555555571  0.4444444444444429  0.0000000000000000   F   F   F
  0.5555555555555571  0.7777777777777786  0.0000000000000000   F   F   F
  0.8888888888888928  0.1111111111111143  0.0000000000000000   F   F   F
  0.8888888888888928  0.4444444444444429  0.0000000000000000   F   F   F
  0.8888888888888928  0.7777777777777786  0.0000000000000000   F   F   F
  0.0000000000000000  0.0000000000000000  0.1136391260021554   F   F   F
  0.0000000000000000  0.3333333333333357  0.1136391260021554   F   F   F
  0.0000000000000000  0.6666666666666643  0.1136391260021554   F   F   F
  0.3333333333333357  0.0000000000000000  0.1136391260021554   F   F   F
  0.3333333333333357  0.3333333333333357  0.1136391260021554   F   F   F
  0.3333333333333357  0.6666666666666643  0.1136391260021554   F   F   F
  0.6666666666666643  0.0000000000000000  0.1136391260021554   F   F   F
  0.6666666666666643  0.3333333333333357  0.1136391260021554   F   F   F
  0.6666666666666643  0.6666666666666643  0.1136391260021554   F   F   F
 -0.0031388602424536 -0.0016903690417656  0.4526105941942335   T   T   T
  0.2195840308142269  0.1082176765953256  0.3386535491548435   T   T   T
  0.1100220213058302  0.2221738524282544  0.2265375810351812   T   T   T
  0.3318596845417628 -0.0016477690874333  0.4525760457913344   T   T   T
  0.5541011553278367  0.1134679672855520  0.3403955911419344   T   T   T
  0.4441041963547145  0.2221631836010377  0.2265495607974698   T   T   T
  0.6688854969513313  0.0073792125262309  0.4520352598173919   T   T   T
  0.8903315271832767  0.1134749000798816  0.3404308846322171   T   T   T
  0.7774290905898478  0.2228496371906432  0.2276912243548923   T   T   T
 -0.0017105991161624  0.3379646365487133  0.4537660683628588   T   T   T
  0.2223645779944301  0.4459292166966248  0.3392299478472380   T   T   T
  0.1107459008627392  0.5560190706992409  0.2273519792355505   T   T   T
  0.5545737125280801  0.4459489820146388  0.3392594115567196   T   T   T
  0.4446280901736999  0.5572726460614007  0.2268743498283162   T   T   T
  0.6700426832144034  0.3378607025187787  0.4537306509711726   T   T   T
  0.8883757424888385  0.4457538182042361  0.3407728556487042   T   T   T
  0.7772445039203167  0.5560264317148519  0.2273728507308772   T   T   T
  0.0002805517364639  0.6702427850849647  0.4533040064035592   T   T   T
  0.2231472143064591  0.7775428144514189  0.3409486103740653   T   T   T
  0.1102730532947803  0.8885921569891443  0.2271793025554381   T   T   T
  0.3342910824888077  0.6721936844314318  0.4562593387956382   T   T   T
  0.5557580207189472  0.7805350510247908  0.3405108297054970   T   T   T
  0.4435818918231011  0.8897180807252700  0.2272487094107686   T   T   T
  0.6681705035885307  0.6721297123602957  0.4562940073193770   T   T   T
  0.8853491352987961  0.7775426222898983  0.3409679570732906   T   T   T
  0.7781234534874040  0.8897502199156699  0.2272571399605515   T   T   T
  0.3312198648911434  0.3320902939887636  0.4550795247178229   T   T   T
  0.4375230717831263  0.5453554232912055  0.5107932664557775   T   T   T
 
  0.00000000E+00  0.00000000E+00  0.00000000E+00
  0.00000000E+00  0.00000000E+00  0.00000000E+00
  0.00000000E+00  0.00000000E+00  0.00000000E+00
  0.00000000E+00  0.00000000E+00  0.00000000E+00
  0.00000000E+00  0.00000000E+00  0.00000000E+00
  0.00000000E+00  0.00000000E+00  0.00000000E+00
  0.00000000E+00  0.00000000E+00  0.00000000E+00
  0.00000000E+00  0.00000000E+00  0.00000000E+00
  0.00000000E+00  0.00000000E+00  0.00000000E+00
  0.00000000E+00  0.00000000E+00  0.00000000E+00
  0.00000000E+00  0.00000000E+00  0.00000000E+00
  0.00000000E+00  0.00000000E+00  0.00000000E+00
  0.00000000E+00  0.00000000E+00  0.00000000E+00
  0.00000000E+00  0.00000000E+00  0.00000000E+00
  0.00000000E+00  0.00000000E+00  0.00000000E+00
  0.00000000E+00  0.00000000E+00  0.00000000E+00
  0.00000000E+00  0.00000000E+00  0.00000000E+00
  0.00000000E+00  0.00000000E+00  0.00000000E+00
  0.00000000E+00  0.00000000E+00  0.00000000E+00
  0.00000000E+00  0.00000000E+00  0.00000000E+00
  0.00000000E+00  0.00000000E+00  0.00000000E+00
  0.00000000E+00  0.00000000E+00  0.00000000E+00
  0.00000000E+00  0.00000000E+00  0.00000000E+00
  0.00000000E+00  0.00000000E+00  0.00000000E+00
  0.00000000E+00  0.00000000E+00  0.00000000E+00
  0.00000000E+00  0.00000000E+00  0.00000000E+00
  0.00000000E+00  0.00000000E+00  0.00000000E+00
  0.00000000E+00  0.00000000E+00  0.00000000E+00
  0.00000000E+00  0.00000000E+00  0.00000000E+00
  0.00000000E+00  0.00000000E+00  0.00000000E+00
  0.00000000E+00  0.00000000E+00  0.00000000E+00
  0.00000000E+00  0.00000000E+00  0.00000000E+00
  0.00000000E+00  0.00000000E+00  0.00000000E+00
  0.00000000E+00  0.00000000E+00  0.00000000E+00
  0.00000000E+00  0.00000000E+00  0.00000000E+00
  0.00000000E+00  0.00000000E+00  0.00000000E+00
  0.00000000E+00  0.00000000E+00  0.00000000E+00
  0.00000000E+00  0.00000000E+00  0.00000000E+00
  0.00000000E+00  0.00000000E+00  0.00000000E+00
  0.00000000E+00  0.00000000E+00  0.00000000E+00
  0.00000000E+00  0.00000000E+00  0.00000000E+00
  0.00000000E+00  0.00000000E+00  0.00000000E+00
  0.00000000E+00  0.00000000E+00  0.00000000E+00
  0.00000000E+00  0.00000000E+00  0.00000000E+00
  0.00000000E+00  0.00000000E+00  0.00000000E+00
  0.00000000E+00  0.00000000E+00  0.00000000E+00
