&CONTROL
  calculation='relax',
  prefix='calc',
  pseudo_dir='/nfs/slac/g/suncatfs/sw/external/esp-psp/v2',
  outdir='.',
  tefield=.true.,
  dipfield=.true.,
  tprnfor=.true.,
  disk_io='none',
/
&SYSTEM
  ibrav=0,
  celldm(1)=1.8897261245650618d0,
  nat=41,
  ntyp=5,
  ecutwfc=36.7493237909d0,
  ecutrho=367.493237909d0,
  nbnd=215,
  occupations='smearing',
  smearing='mv',
  degauss=0.00734986475817d0,
  input_dft='BEEF',
  edir=3,
  emaxpos=0.0283497311971d0,
  eopreg=0.025d0,
  eamp=0.0d0,
/
&ELECTRONS
  diagonalization='david',
  conv_thr=7.34986475817e-06,
  mixing_ndim=10,
  mixing_mode='local-TF',
  electron_maxstep=300,
  mixing_beta=0.1d0,
  conv_thr=7.34986475817e-06,
/
&IONS
  ion_dynamics='ase3',
/
CELL_PARAMETERS
    7.806466670766000d0     0.000000000000000d0     0.000000000000000d0
    0.000000000000000d0     6.373953345806000d0     0.000000000000000d0
    0.000000000000000d0     0.000000000000000d0    28.527096162408998d0
ATOMIC_SPECIES
Zn1 65.39d0 Zn.UPF
Cu1 63.546d0 Cu.UPF
O1 15.9994d0 O.UPF
C1 12.011d0 C.UPF
H1 1.00794d0 H.UPF
ATOMIC_POSITIONS {crystal}
Zn1      0.063697522388370d0     0.187471416716937d0     0.628233204768117d0
Cu1      0.432134705201619d0     0.172958129169783d0     0.621622968102328d0
Cu1      0.750597963443980d0     0.168019735964995d0     0.621305309232605d0
Cu1      0.250998117133685d0     0.835362970233985d0     0.597451905169626d0
Cu1      0.586730465031937d0     0.838700024342849d0     0.594706568497777d0
Cu1      0.916966599714972d0     0.837179850864095d0     0.594555718075937d0
Cu1      0.085305040070245d0     0.511763927465145d0     0.570444625642526d0
Cu1      0.418866382981668d0     0.510058821984066d0     0.571008781485851d0
Cu1      0.750236179491112d0     0.509089607037839d0     0.571545503806997d0
Cu1      0.250134362969730d0     0.179294086164156d0     0.544887758332177d0
Cu1      0.584640579282015d0     0.178904690465002d0     0.544688569470881d0
Cu1      0.920952872950387d0     0.180031623874663d0     0.544737526263008d0
Cu1      0.085877636086747d0     0.842250137166312d0     0.518031108976348d0
Cu1      0.416366722195086d0     0.841319203525867d0     0.518112556548727d0
Cu1      0.751334327607033d0     0.841464952054666d0     0.517364816722229d0
Cu1      0.251139783121240d0     0.506605436255232d0     0.491361616983241d0
Cu1      0.584216730030038d0     0.506977882926416d0     0.491439365826192d0
Cu1      0.916513530701372d0     0.507153180307086d0     0.491367114152918d0
Cu1      0.083332876627320d0     0.172011732011520d0     0.465857928974722d0
Cu1      0.416665876627326d0     0.172011732011520d0     0.465857928974722d0
Cu1      0.749999876627332d0     0.172011732011520d0     0.465857928974722d0
Cu1      0.249998876627323d0     0.838678732011604d0     0.439526066573635d0
Cu1      0.583332876627329d0     0.838678732011604d0     0.439526066573635d0
Cu1      0.916665876627335d0     0.838678732011604d0     0.439526066573635d0
Cu1      0.083332876627320d0     0.505344732011562d0     0.413193549932277d0
Cu1      0.416665876627326d0     0.505344732011562d0     0.413193549932277d0
Cu1      0.749999876627332d0     0.505344732011562d0     0.413193549932277d0
Cu1      0.249998876627323d0     0.172011732011520d0     0.386861687531190d0
Cu1      0.583332876627329d0     0.172011732011520d0     0.386861687531190d0
Cu1      0.916665876627335d0     0.172011732011520d0     0.386861687531190d0
Cu1      0.083332876627320d0     0.838678732011604d0     0.360529825130102d0
Cu1      0.416665876627326d0     0.838678732011604d0     0.360529825130102d0
Cu1      0.749999876627332d0     0.838678732011604d0     0.360529825130102d0
Cu1      0.249998876627323d0     0.505344732011562d0     0.334197308488745d0
Cu1      0.583332876627329d0     0.505344732011562d0     0.334197308488745d0
Cu1      0.916665876627335d0     0.505344732011562d0     0.334197308488745d0
O1       0.254461915155266d0     0.127277253152605d0     0.662158067827650d0
C1       0.561322995866096d0     0.171685947954728d0     0.705034912388924d0
H1       0.561764887522168d0     0.323281716206497d0     0.722502153905362d0
H1       0.445646038331193d0     0.086508958823324d0     0.715165674501612d0
H1       0.669961541257107d0     0.080543157393567d0     0.717321328854200d0
K_POINTS automatic
4 4 1 0 0 0
