POSCAR file for Cu_3x3x5.xsd | Created o
   1.00000000000000     
     5.4128999999999996   -5.4128999999999996   -0.0000000000000013
     0.0000000000000000    5.4128999999999996   -5.4128999999999996
    10.5849693585628994   10.5849693585628994   10.5849693585628994
   Cu   Rh
    44     1
Selective dynamics
Direct
  0.2222222222222214  0.1111111111111143  0.0000000000000000   F   F   F
  0.2222222222222214  0.4444444444444429  0.0000000000000000   F   F   F
  0.2222222222222214  0.7777777777777786  0.0000000000000000   F   F   F
  0.5555555555555571  0.1111111111111143  0.0000000000000000   F   F   F
  0.5555555555555571  0.4444444444444429  0.0000000000000000   F   F   F
  0.5555555555555571  0.7777777777777786  0.0000000000000000   F   F   F
  0.8888888888888928  0.1111111111111143  0.0000000000000000   F   F   F
  0.8888888888888928  0.4444444444444429  0.0000000000000000   F   F   F
  0.8888888888888928  0.7777777777777786  0.0000000000000000   F   F   F
  0.0000000000000000  0.0000000000000000  0.1136391260021554   F   F   F
  0.0000000000000000  0.3333333333333357  0.1136391260021554   F   F   F
  0.0000000000000000  0.6666666666666643  0.1136391260021554   F   F   F
  0.3333333333333357  0.0000000000000000  0.1136391260021554   F   F   F
  0.3333333333333357  0.3333333333333357  0.1136391260021554   F   F   F
  0.3333333333333357  0.6666666666666643  0.1136391260021554   F   F   F
  0.6666666666666643  0.0000000000000000  0.1136391260021554   F   F   F
  0.6666666666666643  0.3333333333333357  0.1136391260021554   F   F   F
  0.6666666666666643  0.6666666666666643  0.1136391260021554   F   F   F
  0.9986114186556678  0.9980290382405609  0.4524300445183478   T   T   T
  0.2222020439418287  0.1105250358002984  0.3382883018916935   T   T   T
  0.1106920980153941  0.2220308699031448  0.2258774421677080   T   T   T
  0.3335439589646892  0.9980221580523801  0.4524356252567787   T   T   T
  0.5559122262069677  0.1115662052244513  0.3395423613777475   T   T   T
  0.4450187688309718  0.2220506535957022  0.2258942105600318   T   T   T
  0.6673252780196824  0.0004787041876170  0.4514942770267297   T   T   T
  0.8895888622025838  0.1115617173382558  0.3395253192353813   T   T   T
  0.7780236513695408  0.2223811447794173  0.2266298852011341   T   T   T
  0.9985948188836179  0.3342859623310842  0.4524230220954312   T   T   T
  0.2222409077663770  0.4452372562257302  0.3382888091804200   T   T   T
  0.1113851594309588  0.5556993112863019  0.2264007138260104   T   T   T
  0.5570013702963923  0.4452665668835677  0.3382715646153632   T   T   T
  0.4450047156068070  0.5563431271435972  0.2258830646545894   T   T   T
  0.6698143513375580  0.3342698857741851  0.4524348777364031   T   T   T
  0.8892330069972078  0.4445219967371181  0.3393129145428196   T   T   T
  0.7780074853240880  0.5557111145943687  0.2263975648434360   T   T   T
  0.0006126990242433  0.6671754156458281  0.4516724751815243   T   T   T
  0.2229382873404451  0.7782535987800209  0.3393163908165817   T   T   T
  0.1113760842043265  0.8890962471085365  0.2263863946305798   T   T   T
  0.3335056247220213  0.6692272283924193  0.4524357047517914   T   T   T
  0.5559177534560885  0.7778942733697805  0.3395201336777947   T   T   T
  0.4446716126135094  0.8890306921101023  0.2266250930562632   T   T   T
  0.6698009536512745  0.6692208658455406  0.4524192986707409   T   T   T
  0.8892495443637702  0.7782925977335913  0.3393029152112993   T   T   T
  0.7780172401244516  0.8890410185897496  0.2266071013791752   T   T   T
  0.3339990982935229  0.3338524244832789  0.4519557154471924   T   T   T
 
  0.00000000E+00  0.00000000E+00  0.00000000E+00
  0.00000000E+00  0.00000000E+00  0.00000000E+00
  0.00000000E+00  0.00000000E+00  0.00000000E+00
  0.00000000E+00  0.00000000E+00  0.00000000E+00
  0.00000000E+00  0.00000000E+00  0.00000000E+00
  0.00000000E+00  0.00000000E+00  0.00000000E+00
  0.00000000E+00  0.00000000E+00  0.00000000E+00
  0.00000000E+00  0.00000000E+00  0.00000000E+00
  0.00000000E+00  0.00000000E+00  0.00000000E+00
  0.00000000E+00  0.00000000E+00  0.00000000E+00
  0.00000000E+00  0.00000000E+00  0.00000000E+00
  0.00000000E+00  0.00000000E+00  0.00000000E+00
  0.00000000E+00  0.00000000E+00  0.00000000E+00
  0.00000000E+00  0.00000000E+00  0.00000000E+00
  0.00000000E+00  0.00000000E+00  0.00000000E+00
  0.00000000E+00  0.00000000E+00  0.00000000E+00
  0.00000000E+00  0.00000000E+00  0.00000000E+00
  0.00000000E+00  0.00000000E+00  0.00000000E+00
  0.00000000E+00  0.00000000E+00  0.00000000E+00
  0.00000000E+00  0.00000000E+00  0.00000000E+00
  0.00000000E+00  0.00000000E+00  0.00000000E+00
  0.00000000E+00  0.00000000E+00  0.00000000E+00
  0.00000000E+00  0.00000000E+00  0.00000000E+00
  0.00000000E+00  0.00000000E+00  0.00000000E+00
  0.00000000E+00  0.00000000E+00  0.00000000E+00
  0.00000000E+00  0.00000000E+00  0.00000000E+00
  0.00000000E+00  0.00000000E+00  0.00000000E+00
  0.00000000E+00  0.00000000E+00  0.00000000E+00
  0.00000000E+00  0.00000000E+00  0.00000000E+00
  0.00000000E+00  0.00000000E+00  0.00000000E+00
  0.00000000E+00  0.00000000E+00  0.00000000E+00
  0.00000000E+00  0.00000000E+00  0.00000000E+00
  0.00000000E+00  0.00000000E+00  0.00000000E+00
  0.00000000E+00  0.00000000E+00  0.00000000E+00
  0.00000000E+00  0.00000000E+00  0.00000000E+00
  0.00000000E+00  0.00000000E+00  0.00000000E+00
  0.00000000E+00  0.00000000E+00  0.00000000E+00
  0.00000000E+00  0.00000000E+00  0.00000000E+00
  0.00000000E+00  0.00000000E+00  0.00000000E+00
  0.00000000E+00  0.00000000E+00  0.00000000E+00
  0.00000000E+00  0.00000000E+00  0.00000000E+00
  0.00000000E+00  0.00000000E+00  0.00000000E+00
  0.00000000E+00  0.00000000E+00  0.00000000E+00
  0.00000000E+00  0.00000000E+00  0.00000000E+00
  0.00000000E+00  0.00000000E+00  0.00000000E+00
