POSCAR file for Cu_3x3x5.xsd | Created o
   1.00000000000000     
     5.4128999999999996   -5.4128999999999996   -0.0000000000000013
     0.0000000000000000    5.4128999999999996   -5.4128999999999996
    10.5849693585628994   10.5849693585628994   10.5849693585628994
   Cu   Rh   
    44     1 
Selective dynamics
Direct
  0.2222222222222214  0.1111111111111143  0.0000000000000000   F   F   F
  0.2222222222222214  0.4444444444444429  0.0000000000000000   F   F   F
  0.2222222222222214  0.7777777777777786  0.0000000000000000   F   F   F
  0.5555555555555571  0.1111111111111143  0.0000000000000000   F   F   F
  0.5555555555555571  0.4444444444444429  0.0000000000000000   F   F   F
  0.5555555555555571  0.7777777777777786  0.0000000000000000   F   F   F
  0.8888888888888928  0.1111111111111143  0.0000000000000000   F   F   F
  0.8888888888888928  0.4444444444444429  0.0000000000000000   F   F   F
  0.8888888888888928  0.7777777777777786  0.0000000000000000   F   F   F
  0.0000000000000000  0.0000000000000000  0.1136391260021554   F   F   F
  0.0000000000000000  0.3333333333333357  0.1136391260021554   F   F   F
  0.0000000000000000  0.6666666666666643  0.1136391260021554   F   F   F
  0.3333333333333357  0.0000000000000000  0.1136391260021554   F   F   F
  0.3333333333333357  0.3333333333333357  0.1136391260021554   F   F   F
  0.3333333333333357  0.6666666666666643  0.1136391260021554   F   F   F
  0.6666666666666643  0.0000000000000000  0.1136391260021554   F   F   F
  0.6666666666666643  0.3333333333333357  0.1136391260021554   F   F   F
  0.6666666666666643  0.6666666666666643  0.1136391260021554   F   F   F
  0.9981217323136576  0.9976650364835927  0.4520212978523377   T   T   T
  0.2229687610740925  0.1118701587144262  0.3388519740236111   T   T   T
  0.1108882039309992  0.2220993071465759  0.2258925999380674   T   T   T
  0.3336863590051669  0.9976480042289297  0.4522512372913783   T   T   T
  0.5558703532171519  0.1115616224661770  0.3394534615675074   T   T   T
  0.4449787863608628  0.2221016563783530  0.2258889491320218   T   T   T
  0.6673778624510522  0.0005130009146865  0.4515830071022335   T   T   T
  0.8896139095151474  0.1116002451230563  0.3394032619696249   T   T   T
  0.7780860018418960  0.2224450170274214  0.2266550293341077   T   T   T
  0.9981087985718077  0.3341726315424198  0.4521616132317867   T   T   T
  0.2228545307530525  0.4445861057351325  0.3388633600436492   T   T   T
  0.1116181135463506  0.5554437675608886  0.2265709470274548   T   T   T
  0.5556339271045905  0.4445614137201155  0.3387948094014909   T   T   T
  0.4449318795116675  0.5561968158315534  0.2258885499036780   T   T   T
  0.6703179867997782  0.3340751143930478  0.4521780182955126   T   T   T
  0.8892541685569257  0.4446618328172179  0.3391460167033942   T   T   T
  0.7775304158409324  0.5554405249216174  0.2265306535717828   T   T   T
  0.0006801832823338  0.6672265477213914  0.4515746227842068   T   T   T
  0.2228248367667645  0.7781907608443145  0.3391687653787798   T   T   T
  0.1116505164585484  0.8895658281388388  0.2265591022935771   T   T   T
  0.3336361364199487  0.6698430356926376  0.4521954712163151   T   T   T
  0.5558639362665676  0.7778424598084934  0.3394220019161792   T   T   T
  0.4446509454508740  0.8890171653668294  0.2266539119579064   T   T   T
  0.6704265706036785  0.6699782716316802  0.4520910138521052   T   T   T
  0.8893082150590077  0.7781334370452064  0.3390779841644753   T   T   T
  0.7780555515893224  0.8889830200425823  0.2266347763588899   T   T   T
  0.3343294771613616  0.3341540486778625  0.4544187067518741   T   T   T
