AlCo2S4                                 
   1.00000000000000     
     9.6027250953742751   -0.0000000000000000    0.0000000000000000
    -0.0000000000000000    9.6027250953742751    0.0000000000000000
    -0.0000000000000000   -0.0000000000000000    9.6027250953742751
   Al   Co   S 
     8    16    32
Direct
 -0.0000000000000000 -0.0000000000000000 -0.0000000000000000
  0.2500000000000000  0.7500000000000000  0.7500000000000000
  0.5000000000000000 -0.0000000000000000  0.5000000000000000
 -0.0000000000000000  0.5000000000000000  0.5000000000000000
  0.5000000000000000  0.5000000000000000 -0.0000000000000000
  0.7500000000000000  0.2500000000000000  0.7500000000000000
  0.7500000000000000  0.7500000000000000  0.2500000000000000
  0.2500000000000000  0.2500000000000000  0.2500000000000000
  0.1250000000000000  0.1250000000000000  0.6250000000000000
  0.8750000000000000  0.8750000000000000  0.6250000000000000
  0.3750000000000000  0.1250000000000000  0.8750000000000000
  0.6250000000000000  0.8750000000000000  0.8750000000000000
  0.1250000000000000  0.3750000000000000  0.8750000000000000
  0.8750000000000000  0.6250000000000000  0.8750000000000000
  0.3750000000000000  0.3750000000000000  0.6250000000000000
  0.6250000000000000  0.6250000000000000  0.6250000000000000
  0.3750000000000000  0.8750000000000000  0.1250000000000000
  0.3750000000000000  0.6250000000000000  0.3750000000000000
  0.1250000000000000  0.6250000000000000  0.1250000000000000
  0.1250000000000000  0.8750000000000000  0.3750000000000000
  0.8750000000000000  0.3750000000000000  0.1250000000000000
  0.8750000000000000  0.1250000000000000  0.3750000000000000
  0.6250000000000000  0.1250000000000000  0.1250000000000000
  0.6250000000000000  0.3750000000000000  0.3750000000000000
  0.1114945859701980  0.1114945859701980  0.3885054140298019
  0.6385054140298021  0.8614945859701979  0.6385054140298021
  0.3885054140298019  0.1114945859701980  0.1114945859701980
  0.8614945859701979  0.8614945859701979  0.8614945859701979
  0.1114945859701980  0.3885054140298019  0.1114945859701980
  0.6385054140298021  0.6385054140298021  0.8614945859701979
  0.3885054140298019  0.3885054140298019  0.3885054140298019
  0.8614945859701979  0.6385054140298021  0.6385054140298021
  0.1114945859701980  0.6114945859701979  0.8885054140298021
  0.3614945859701981  0.8614945859701979  0.3614945859701981
  0.1114945859701980  0.8885054140298021  0.6114945859701979
  0.3614945859701981  0.6385054140298021  0.1385054140298020
  0.3885054140298019  0.8885054140298021  0.8885054140298021
  0.1385054140298020  0.6385054140298021  0.3614945859701981
  0.3885054140298019  0.6114945859701979  0.6114945859701979
  0.1385054140298020  0.8614945859701979  0.1385054140298020
  0.6114945859701979  0.1114945859701980  0.8885054140298021
  0.3614945859701981  0.1385054140298020  0.6385054140298021
  0.8885054140298021  0.3885054140298019  0.8885054140298021
  0.1385054140298020  0.3614945859701981  0.6385054140298021
  0.8885054140298021  0.1114945859701980  0.6114945859701979
  0.1385054140298020  0.1385054140298020  0.8614945859701979
  0.6114945859701979  0.3885054140298019  0.6114945859701979
  0.3614945859701981  0.3614945859701981  0.8614945859701979
  0.6114945859701979  0.6114945859701979  0.3885054140298019
  0.8885054140298021  0.6114945859701979  0.1114945859701980
  0.6114945859701979  0.8885054140298021  0.1114945859701980
  0.8885054140298021  0.8885054140298021  0.3885054140298019
  0.8614945859701979  0.3614945859701981  0.3614945859701981
  0.8614945859701979  0.1385054140298020  0.1385054140298020
  0.6385054140298021  0.1385054140298020  0.3614945859701981
  0.6385054140298021  0.3614945859701981  0.1385054140298020
 
  0.00000000E+00  0.00000000E+00  0.00000000E+00
  0.00000000E+00  0.00000000E+00  0.00000000E+00
  0.00000000E+00  0.00000000E+00  0.00000000E+00
  0.00000000E+00  0.00000000E+00  0.00000000E+00
  0.00000000E+00  0.00000000E+00  0.00000000E+00
  0.00000000E+00  0.00000000E+00  0.00000000E+00
  0.00000000E+00  0.00000000E+00  0.00000000E+00
  0.00000000E+00  0.00000000E+00  0.00000000E+00
  0.00000000E+00  0.00000000E+00  0.00000000E+00
  0.00000000E+00  0.00000000E+00  0.00000000E+00
  0.00000000E+00  0.00000000E+00  0.00000000E+00
  0.00000000E+00  0.00000000E+00  0.00000000E+00
  0.00000000E+00  0.00000000E+00  0.00000000E+00
  0.00000000E+00  0.00000000E+00  0.00000000E+00
  0.00000000E+00  0.00000000E+00  0.00000000E+00
  0.00000000E+00  0.00000000E+00  0.00000000E+00
  0.00000000E+00  0.00000000E+00  0.00000000E+00
  0.00000000E+00  0.00000000E+00  0.00000000E+00
  0.00000000E+00  0.00000000E+00  0.00000000E+00
  0.00000000E+00  0.00000000E+00  0.00000000E+00
  0.00000000E+00  0.00000000E+00  0.00000000E+00
  0.00000000E+00  0.00000000E+00  0.00000000E+00
  0.00000000E+00  0.00000000E+00  0.00000000E+00
  0.00000000E+00  0.00000000E+00  0.00000000E+00
  0.00000000E+00  0.00000000E+00  0.00000000E+00
  0.00000000E+00  0.00000000E+00  0.00000000E+00
  0.00000000E+00  0.00000000E+00  0.00000000E+00
  0.00000000E+00  0.00000000E+00  0.00000000E+00
  0.00000000E+00  0.00000000E+00  0.00000000E+00
  0.00000000E+00  0.00000000E+00  0.00000000E+00
  0.00000000E+00  0.00000000E+00  0.00000000E+00
  0.00000000E+00  0.00000000E+00  0.00000000E+00
  0.00000000E+00  0.00000000E+00  0.00000000E+00
  0.00000000E+00  0.00000000E+00  0.00000000E+00
  0.00000000E+00  0.00000000E+00  0.00000000E+00
  0.00000000E+00  0.00000000E+00  0.00000000E+00
  0.00000000E+00  0.00000000E+00  0.00000000E+00
  0.00000000E+00  0.00000000E+00  0.00000000E+00
  0.00000000E+00  0.00000000E+00  0.00000000E+00
  0.00000000E+00  0.00000000E+00  0.00000000E+00
  0.00000000E+00  0.00000000E+00  0.00000000E+00
  0.00000000E+00  0.00000000E+00  0.00000000E+00
  0.00000000E+00  0.00000000E+00  0.00000000E+00
  0.00000000E+00  0.00000000E+00  0.00000000E+00
  0.00000000E+00  0.00000000E+00  0.00000000E+00
  0.00000000E+00  0.00000000E+00  0.00000000E+00
  0.00000000E+00  0.00000000E+00  0.00000000E+00
  0.00000000E+00  0.00000000E+00  0.00000000E+00
  0.00000000E+00  0.00000000E+00  0.00000000E+00
  0.00000000E+00  0.00000000E+00  0.00000000E+00
  0.00000000E+00  0.00000000E+00  0.00000000E+00
  0.00000000E+00  0.00000000E+00  0.00000000E+00
  0.00000000E+00  0.00000000E+00  0.00000000E+00
  0.00000000E+00  0.00000000E+00  0.00000000E+00
  0.00000000E+00  0.00000000E+00  0.00000000E+00
  0.00000000E+00  0.00000000E+00  0.00000000E+00
