AlCo2S4
1.0
9.805601 0.000000 0.000000
0.000000 9.805601 0.000000
0.000000 0.000000 9.805601
Al Co S 
8 16 32
Direct
0.000000 0.000000 0.000000 Al 
0.250000 0.750000 0.750000 Al 
0.500000 0.000000 0.500000 Al 
0.000000 0.500000 0.500000 Al 
0.500000 0.500000 0.000000 Al 
0.750000 0.250000 0.750000 Al 
0.750000 0.750000 0.250000 Al 
0.250000 0.250000 0.250000 Al 
0.125000 0.125000 0.625000 Co  
0.875000 0.875000 0.625000 Co  
0.375000 0.125000 0.875000 Co  
0.625000 0.875000 0.875000 Co  
0.125000 0.375000 0.875000 Co  
0.875000 0.625000 0.875000 Co  
0.375000 0.375000 0.625000 Co  
0.625000 0.625000 0.625000 Co  
0.375000 0.875000 0.125000 Co  
0.375000 0.625000 0.375000 Co  
0.125000 0.625000 0.125000 Co  
0.125000 0.875000 0.375000 Co  
0.875000 0.375000 0.125000 Co  
0.875000 0.125000 0.375000 Co  
0.625000 0.125000 0.125000 Co  
0.625000 0.375000 0.375000 Co  
0.117874 0.117874 0.382126 S  
0.632126 0.867874 0.632126 S  
0.382126 0.117874 0.117874 S  
0.867874 0.867874 0.867874 S  
0.117874 0.382126 0.117874 S  
0.632126 0.632126 0.867874 S  
0.382126 0.382126 0.382126 S  
0.867874 0.632126 0.632126 S  
0.117874 0.617874 0.882126 S  
0.367874 0.867874 0.367874 S  
0.117874 0.882126 0.617874 S  
0.367874 0.632126 0.132126 S  
0.382126 0.882126 0.882126 S  
0.132126 0.632126 0.367874 S  
0.382126 0.617874 0.617874 S  
0.132126 0.867874 0.132126 S  
0.617874 0.117874 0.882126 S  
0.367874 0.132126 0.632126 S  
0.882126 0.382126 0.882126 S  
0.132126 0.367874 0.632126 S  
0.882126 0.117874 0.617874 S  
0.132126 0.132126 0.867874 S  
0.617874 0.382126 0.617874 S  
0.367874 0.367874 0.867874 S  
0.617874 0.617874 0.382126 S  
0.882126 0.617874 0.117874 S  
0.617874 0.882126 0.117874 S  
0.882126 0.882126 0.382126 S  
0.867874 0.367874 0.367874 S  
0.867874 0.132126 0.132126 S  
0.632126 0.132126 0.367874 S  
0.632126 0.367874 0.132126 S  
