&CONTROL
  calculation='relax',
  prefix='calc',
  pseudo_dir='/nfs/slac/g/suncatfs/sw/external/esp-psp/v2',
  outdir='.',
  tefield=.true.,
  dipfield=.true.,
  tprnfor=.true.,
  disk_io='none',
/
&SYSTEM
  ibrav=0,
  celldm(1)=1.8897261245650618d0,
  nat=41,
  ntyp=5,
  ecutwfc=36.7493237909d0,
  ecutrho=367.493237909d0,
  nbnd=215,
  occupations='smearing',
  smearing='mv',
  degauss=0.00734986475817d0,
  input_dft='BEEF',
  edir=3,
  emaxpos=0.0253783492468d0,
  eopreg=0.025d0,
  eamp=0.0d0,
/
&ELECTRONS
  diagonalization='david',
  conv_thr=7.34986475817e-06,
  mixing_ndim=10,
  mixing_mode='local-TF',
  electron_maxstep=300,
  mixing_beta=0.1d0,
  conv_thr=7.34986475817e-06,
/
&IONS
  ion_dynamics='ase3',
/
CELL_PARAMETERS
    7.806466670766000d0     0.000000000000000d0     0.000000000000000d0
    0.000000000000000d0     6.373953345806000d0     0.000000000000000d0
    0.000000000000000d0     0.000000000000000d0    28.527096162408998d0
ATOMIC_SPECIES
Zn1 65.39d0 Zn.UPF
Cu1 63.546d0 Cu.UPF
O1 15.9994d0 O.UPF
C1 12.011d0 C.UPF
H1 1.00794d0 H.UPF
ATOMIC_POSITIONS {crystal}
Zn1      0.063100704494966d0     0.189619806482089d0     0.628914731351936d0
Cu1      0.433200474981285d0     0.174729103321484d0     0.621314988137950d0
Cu1      0.751728848633506d0     0.170545350113154d0     0.622029363214912d0
Cu1      0.251100946838810d0     0.835028398167925d0     0.598641418174716d0
Cu1      0.588099855558400d0     0.839603104061039d0     0.594600401539151d0
Cu1      0.916799007549083d0     0.836755708594312d0     0.594204743869283d0
Cu1      0.086310990404227d0     0.511625694539771d0     0.570566573962702d0
Cu1      0.419433179656666d0     0.510928054518563d0     0.571057378506214d0
Cu1      0.750546955949640d0     0.509373357672770d0     0.571436291819191d0
Cu1      0.250395659391427d0     0.179565554957241d0     0.544841774319894d0
Cu1      0.586313611144949d0     0.179766398637206d0     0.544769254437021d0
Cu1      0.921462251082023d0     0.180239587887270d0     0.544774232860360d0
Cu1      0.086841282415943d0     0.842456667682147d0     0.518295195938716d0
Cu1      0.416277982188628d0     0.841864554277807d0     0.518374048014601d0
Cu1      0.751607027316900d0     0.841978086884511d0     0.517330196995377d0
Cu1      0.251526277862708d0     0.506928230201421d0     0.491378302777879d0
Cu1      0.584374253664939d0     0.507403750583429d0     0.491382885459295d0
Cu1      0.916809273329633d0     0.507531367167625d0     0.491376601567578d0
Cu1      0.083332876627320d0     0.172011732011520d0     0.465857928974722d0
Cu1      0.416665876627326d0     0.172011732011520d0     0.465857928974722d0
Cu1      0.749999876627332d0     0.172011732011520d0     0.465857928974722d0
Cu1      0.249998876627323d0     0.838678732011604d0     0.439526066573635d0
Cu1      0.583332876627329d0     0.838678732011604d0     0.439526066573635d0
Cu1      0.916665876627335d0     0.838678732011604d0     0.439526066573635d0
Cu1      0.083332876627320d0     0.505344732011562d0     0.413193549932277d0
Cu1      0.416665876627326d0     0.505344732011562d0     0.413193549932277d0
Cu1      0.749999876627332d0     0.505344732011562d0     0.413193549932277d0
Cu1      0.249998876627323d0     0.172011732011520d0     0.386861687531190d0
Cu1      0.583332876627329d0     0.172011732011520d0     0.386861687531190d0
Cu1      0.916665876627335d0     0.172011732011520d0     0.386861687531190d0
Cu1      0.083332876627320d0     0.838678732011604d0     0.360529825130102d0
Cu1      0.416665876627326d0     0.838678732011604d0     0.360529825130102d0
Cu1      0.749999876627332d0     0.838678732011604d0     0.360529825130102d0
Cu1      0.249998876627323d0     0.505344732011562d0     0.334197308488745d0
Cu1      0.583332876627329d0     0.505344732011562d0     0.334197308488745d0
Cu1      0.916665876627335d0     0.505344732011562d0     0.334197308488745d0
O1       0.255310645236616d0     0.097992910409470d0     0.659096764066654d0
C1       0.663527701938926d0     0.173398674752029d0     0.700005856599751d0
H1       0.664973092931201d0     0.326980509855282d0     0.716559390004848d0
H1       0.546230908993167d0     0.091508038702342d0     0.710144984578716d0
H1       0.769669669815420d0     0.080726082425934d0     0.713319505603155d0
K_POINTS automatic
4 4 1 0 0 0
