POSCAR file for Cu_3x3x5.xsd | Created o
   1.00000000000000     
     5.4128999999999996   -5.4128999999999996   -0.0000000000000013
     0.0000000000000000    5.4128999999999996   -5.4128999999999996
    10.5849693585628994   10.5849693585628994   10.5849693585628994
   Cu   Rh   C    H 
    44     1     1     3
Selective dynamics
Direct
  0.2222222222222214  0.1111111111111143  0.0000000000000000   F   F   F
  0.2222222222222214  0.4444444444444429  0.0000000000000000   F   F   F
  0.2222222222222214  0.7777777777777786  0.0000000000000000   F   F   F
  0.5555555555555571  0.1111111111111143  0.0000000000000000   F   F   F
  0.5555555555555571  0.4444444444444429  0.0000000000000000   F   F   F
  0.5555555555555571  0.7777777777777786  0.0000000000000000   F   F   F
  0.8888888888888928  0.1111111111111143  0.0000000000000000   F   F   F
  0.8888888888888928  0.4444444444444429  0.0000000000000000   F   F   F
  0.8888888888888928  0.7777777777777786  0.0000000000000000   F   F   F
  0.0000000000000000  0.0000000000000000  0.1136391260021554   F   F   F
  0.0000000000000000  0.3333333333333357  0.1136391260021554   F   F   F
  0.0000000000000000  0.6666666666666643  0.1136391260021554   F   F   F
  0.3333333333333357  0.0000000000000000  0.1136391260021554   F   F   F
  0.3333333333333357  0.3333333333333357  0.1136391260021554   F   F   F
  0.3333333333333357  0.6666666666666643  0.1136391260021554   F   F   F
  0.6666666666666643  0.0000000000000000  0.1136391260021554   F   F   F
  0.6666666666666643  0.3333333333333357  0.1136391260021554   F   F   F
  0.6666666666666643  0.6666666666666643  0.1136391260021554   F   F   F
  0.9975501409146115  0.9969179367126432  0.4515376413949038   T   T   T
  0.2222080962520155  0.1109325377856200  0.3385850877896875   T   T   T
  0.1108909052392601  0.2219063139779367  0.2261195210791350   T   T   T
  0.3329185278993879  0.9971749010447909  0.4516207194918017   T   T   T
  0.5552363479436093  0.1108907838112085  0.3388642347738158   T   T   T
  0.4444012464710405  0.2219440920405384  0.2261425877956625   T   T   T
  0.6665205688680724  0.9994470955422026  0.4506953467018721   T   T   T
  0.8891162372943248  0.1108530338067234  0.3388482463940836   T   T   T
  0.7776258772297462  0.2218604498992422  0.2263241388656052   T   T   T
  0.9978165097540892  0.3330341586092489  0.4516273747426585   T   T   T
  0.2220927588882640  0.4438331809217222  0.3385676689962349   T   T   T
  0.1107178656853635  0.5556194161443818  0.2262999076821047   T   T   T
  0.5551605640740587  0.4439370736693513  0.3385788060346439   T   T   T
  0.4443887930038441  0.5554313856712035  0.2261306220087830   T   T   T
  0.6690299188676030  0.3330439039585541  0.4515235448457129   T   T   T
  0.8886592393132625  0.4438425169224209  0.3390273995177978   T   T   T
  0.7782659453342518  0.5556226426234373  0.2263120823797591   T   T   T
  0.9997834947913854  0.6661158595674288  0.4513536560997881   T   T   T
  0.2222048820010109  0.7774823532741202  0.3390291867186832   T   T   T
  0.1107159991255141  0.8880969595718468  0.2262991418845838   T   T   T
  0.3328504780527570  0.6683595791469602  0.4515136717677719   T   T   T
  0.5551947179821638  0.7769865928096107  0.3388531919307764   T   T   T
  0.4444611845499278  0.8887296555096394  0.2263147072668739   T   T   T
  0.6686867114384673  0.6681249569397606  0.4516184226015791   T   T   T
  0.8886065266547921  0.7774139826483296  0.3390307289744153   T   T   T
  0.7776085594484202  0.8887086337124322  0.2263025494668451   T   T   T
  0.3331528668061772  0.3327610752574646  0.4592638249256822   T   T   T
  0.3331900382618569  0.3314179790404367  0.5738212708620618   T   T   T
  0.3865633388082114  0.4859820325062087  0.5934787947858473   T   T   T
  0.4345235176324471  0.2779280833162408  0.5932040148533370   T   T   T
  0.1785268404420809  0.2299455471682016  0.5933205311107336   T   T   T
 
  0.00000000E+00  0.00000000E+00  0.00000000E+00
  0.00000000E+00  0.00000000E+00  0.00000000E+00
  0.00000000E+00  0.00000000E+00  0.00000000E+00
  0.00000000E+00  0.00000000E+00  0.00000000E+00
  0.00000000E+00  0.00000000E+00  0.00000000E+00
  0.00000000E+00  0.00000000E+00  0.00000000E+00
  0.00000000E+00  0.00000000E+00  0.00000000E+00
  0.00000000E+00  0.00000000E+00  0.00000000E+00
  0.00000000E+00  0.00000000E+00  0.00000000E+00
  0.00000000E+00  0.00000000E+00  0.00000000E+00
  0.00000000E+00  0.00000000E+00  0.00000000E+00
  0.00000000E+00  0.00000000E+00  0.00000000E+00
  0.00000000E+00  0.00000000E+00  0.00000000E+00
  0.00000000E+00  0.00000000E+00  0.00000000E+00
  0.00000000E+00  0.00000000E+00  0.00000000E+00
  0.00000000E+00  0.00000000E+00  0.00000000E+00
  0.00000000E+00  0.00000000E+00  0.00000000E+00
  0.00000000E+00  0.00000000E+00  0.00000000E+00
  0.00000000E+00  0.00000000E+00  0.00000000E+00
  0.00000000E+00  0.00000000E+00  0.00000000E+00
  0.00000000E+00  0.00000000E+00  0.00000000E+00
  0.00000000E+00  0.00000000E+00  0.00000000E+00
  0.00000000E+00  0.00000000E+00  0.00000000E+00
  0.00000000E+00  0.00000000E+00  0.00000000E+00
  0.00000000E+00  0.00000000E+00  0.00000000E+00
  0.00000000E+00  0.00000000E+00  0.00000000E+00
  0.00000000E+00  0.00000000E+00  0.00000000E+00
  0.00000000E+00  0.00000000E+00  0.00000000E+00
  0.00000000E+00  0.00000000E+00  0.00000000E+00
  0.00000000E+00  0.00000000E+00  0.00000000E+00
  0.00000000E+00  0.00000000E+00  0.00000000E+00
  0.00000000E+00  0.00000000E+00  0.00000000E+00
  0.00000000E+00  0.00000000E+00  0.00000000E+00
  0.00000000E+00  0.00000000E+00  0.00000000E+00
  0.00000000E+00  0.00000000E+00  0.00000000E+00
  0.00000000E+00  0.00000000E+00  0.00000000E+00
  0.00000000E+00  0.00000000E+00  0.00000000E+00
  0.00000000E+00  0.00000000E+00  0.00000000E+00
  0.00000000E+00  0.00000000E+00  0.00000000E+00
  0.00000000E+00  0.00000000E+00  0.00000000E+00
  0.00000000E+00  0.00000000E+00  0.00000000E+00
  0.00000000E+00  0.00000000E+00  0.00000000E+00
  0.00000000E+00  0.00000000E+00  0.00000000E+00
  0.00000000E+00  0.00000000E+00  0.00000000E+00
  0.00000000E+00  0.00000000E+00  0.00000000E+00
  0.00000000E+00  0.00000000E+00  0.00000000E+00
  0.00000000E+00  0.00000000E+00  0.00000000E+00
  0.00000000E+00  0.00000000E+00  0.00000000E+00
  0.00000000E+00  0.00000000E+00  0.00000000E+00
