POSCAR file for Cu_3x3x5.xsd | Created o
   1.00000000000000     
     5.4128999999999996   -5.4128999999999996   -0.0000000000000013
     0.0000000000000000    5.4128999999999996   -5.4128999999999996
    10.5849693585628994   10.5849693585628994   10.5849693585628994
   Cu   Rh   C    H 
    44     1     1     3
Selective dynamics
Direct
  0.2222222222222214  0.1111111111111143  0.0000000000000000   F   F   F
  0.2222222222222214  0.4444444444444429  0.0000000000000000   F   F   F
  0.2222222222222214  0.7777777777777786  0.0000000000000000   F   F   F
  0.5555555555555571  0.1111111111111143  0.0000000000000000   F   F   F
  0.5555555555555571  0.4444444444444429  0.0000000000000000   F   F   F
  0.5555555555555571  0.7777777777777786  0.0000000000000000   F   F   F
  0.8888888888888928  0.1111111111111143  0.0000000000000000   F   F   F
  0.8888888888888928  0.4444444444444429  0.0000000000000000   F   F   F
  0.8888888888888928  0.7777777777777786  0.0000000000000000   F   F   F
  0.0000000000000000  0.0000000000000000  0.1136391260021554   F   F   F
  0.0000000000000000  0.3333333333333357  0.1136391260021554   F   F   F
  0.0000000000000000  0.6666666666666643  0.1136391260021554   F   F   F
  0.3333333333333357  0.0000000000000000  0.1136391260021554   F   F   F
  0.3333333333333357  0.3333333333333357  0.1136391260021554   F   F   F
  0.3333333333333357  0.6666666666666643  0.1136391260021554   F   F   F
  0.6666666666666643  0.0000000000000000  0.1136391260021554   F   F   F
  0.6666666666666643  0.3333333333333357  0.1136391260021554   F   F   F
  0.6666666666666643  0.6666666666666643  0.1136391260021554   F   F   F
 -0.0026256090171506 -0.0034880658841883  0.4534976961908850   T   T   T
  0.2221106637433470  0.1106765061179965  0.3394835310093879   T   T   T
  0.1109340044004859  0.2218018990234122  0.2269915691071684   T   T   T
  0.3326911632502790 -0.0032921077073851  0.4535534902083518   T   T   T
  0.5548808250951122  0.1106373986812374  0.3400532177650581   T   T   T
  0.4440901187752253  0.2218023659689728  0.2269550855462028   T   T   T
  0.6662971876071498 -0.0009527990224568  0.4524903911712336   T   T   T
  0.8891829196726795  0.1106407162626480  0.3400743685276889   T   T   T
  0.7775259322229507  0.2218056365763291  0.2271498548908380   T   T   T
 -0.0023584260421205  0.3326566288212647  0.4535688862149876   T   T   T
  0.2219965465133656  0.4435595358826589  0.3394581914727116   T   T   T
  0.1105190395019621  0.5553625935275908  0.2272448767775453   T   T   T
  0.5548840146749663  0.4435734814775932  0.3394472780208580   T   T   T
  0.4440765465535992  0.5549659518980632  0.2269319776245009   T   T   T
  0.6688672312669334  0.3326383552233510  0.4534843706863252   T   T   T
  0.8881188684445702  0.4428597287630969  0.3404828080127520   T   T   T
  0.7780784330716677  0.5554159296560992  0.2272647230319366   T   T   T
 -0.0004357695702234  0.6656848732282742  0.4532549648448095   T   T   T
  0.2225669269568917  0.7773893990868078  0.3404338802013234   T   T   T
  0.1105308564390160  0.8879018561660865  0.2272641436691664   T   T   T
  0.3326247871566794  0.6680240471989162  0.4534833807202830   T   T   T
  0.5548931097553578  0.7763752655385252  0.3400472031197649   T   T   T
  0.4441437124378845  0.8883975448039929  0.2271400045539869   T   T   T
  0.6685209817693523  0.6677486388997731  0.4535873625018673   T   T   T
  0.8881280834774349  0.7773861061238606  0.3405198240169879   T   T   T
  0.7775207467238637  0.8883758251106170  0.2271419587311613   T   T   T
  0.3329487974695787  0.3323699912770767  0.4610965349736282   T   T   T
  0.3331957997783593  0.3312759093339760  0.5753208854691434   T   T   T
  0.3858232219018154  0.4857286541490682  0.5950592509537733   T   T   T
  0.4352886063563101  0.2786152013750168  0.5947241544144604   T   T   T
  0.1786836650115871  0.2291150625492871  0.5949468940048989   T   T   T
 
  0.00000000E+00  0.00000000E+00  0.00000000E+00
  0.00000000E+00  0.00000000E+00  0.00000000E+00
  0.00000000E+00  0.00000000E+00  0.00000000E+00
  0.00000000E+00  0.00000000E+00  0.00000000E+00
  0.00000000E+00  0.00000000E+00  0.00000000E+00
  0.00000000E+00  0.00000000E+00  0.00000000E+00
  0.00000000E+00  0.00000000E+00  0.00000000E+00
  0.00000000E+00  0.00000000E+00  0.00000000E+00
  0.00000000E+00  0.00000000E+00  0.00000000E+00
  0.00000000E+00  0.00000000E+00  0.00000000E+00
  0.00000000E+00  0.00000000E+00  0.00000000E+00
  0.00000000E+00  0.00000000E+00  0.00000000E+00
  0.00000000E+00  0.00000000E+00  0.00000000E+00
  0.00000000E+00  0.00000000E+00  0.00000000E+00
  0.00000000E+00  0.00000000E+00  0.00000000E+00
  0.00000000E+00  0.00000000E+00  0.00000000E+00
  0.00000000E+00  0.00000000E+00  0.00000000E+00
  0.00000000E+00  0.00000000E+00  0.00000000E+00
  0.00000000E+00  0.00000000E+00  0.00000000E+00
  0.00000000E+00  0.00000000E+00  0.00000000E+00
  0.00000000E+00  0.00000000E+00  0.00000000E+00
  0.00000000E+00  0.00000000E+00  0.00000000E+00
  0.00000000E+00  0.00000000E+00  0.00000000E+00
  0.00000000E+00  0.00000000E+00  0.00000000E+00
  0.00000000E+00  0.00000000E+00  0.00000000E+00
  0.00000000E+00  0.00000000E+00  0.00000000E+00
  0.00000000E+00  0.00000000E+00  0.00000000E+00
  0.00000000E+00  0.00000000E+00  0.00000000E+00
  0.00000000E+00  0.00000000E+00  0.00000000E+00
  0.00000000E+00  0.00000000E+00  0.00000000E+00
  0.00000000E+00  0.00000000E+00  0.00000000E+00
  0.00000000E+00  0.00000000E+00  0.00000000E+00
  0.00000000E+00  0.00000000E+00  0.00000000E+00
  0.00000000E+00  0.00000000E+00  0.00000000E+00
  0.00000000E+00  0.00000000E+00  0.00000000E+00
  0.00000000E+00  0.00000000E+00  0.00000000E+00
  0.00000000E+00  0.00000000E+00  0.00000000E+00
  0.00000000E+00  0.00000000E+00  0.00000000E+00
  0.00000000E+00  0.00000000E+00  0.00000000E+00
  0.00000000E+00  0.00000000E+00  0.00000000E+00
  0.00000000E+00  0.00000000E+00  0.00000000E+00
  0.00000000E+00  0.00000000E+00  0.00000000E+00
  0.00000000E+00  0.00000000E+00  0.00000000E+00
  0.00000000E+00  0.00000000E+00  0.00000000E+00
  0.00000000E+00  0.00000000E+00  0.00000000E+00
  0.00000000E+00  0.00000000E+00  0.00000000E+00
  0.00000000E+00  0.00000000E+00  0.00000000E+00
  0.00000000E+00  0.00000000E+00  0.00000000E+00
  0.00000000E+00  0.00000000E+00  0.00000000E+00
