Al Co  S                                
   1.00000000000000     
     9.6027250953742751    0.0000000000000000    0.0000000000000000
     0.0000000000000000    9.6027250953742751    0.0000000000000000
     0.0000000000000000    0.0000000000000000    9.6027250953742751
   Al   Co   S 
     7    16    32
Direct
  0.0022315354978215  0.0011019796895003  0.0011019796895003
  0.2477684645021786  0.7488980203104996  0.7488980203104996
  0.4988980203104997  0.0011019796895003  0.4977684645021786
  0.4988980203104997  0.4977684645021786  0.0011019796895003
  0.7511019796895004  0.2522315354978214  0.7488980203104996
  0.7511019796895004  0.7488980203104996  0.2522315354978214
  0.1250000000000000  0.3750000000000000  0.3750000000000000
  0.1250000000000000  0.1238973158310404  0.6261026841689595
  0.8724715754468781  0.8734490376225308  0.6275284245531219
  0.3775284245531217  0.1224715754468783  0.8765509623774692
  0.6250000000000000  0.8750000000000000  0.8750000000000000
  0.1250000000000000  0.3750000000000000  0.8750000000000000
  0.8724715754468781  0.6275284245531219  0.8734490376225308
  0.3761026841689596  0.3750000000000000  0.6261026841689595
  0.6265509623774692  0.6275284245531219  0.6275284245531219
  0.3775284245531217  0.8765509623774692  0.1224715754468783
  0.3761026841689596  0.6261026841689595  0.3750000000000000
  0.1250000000000000  0.6261026841689595  0.1238973158310404
  0.1250000000000000  0.8750000000000000  0.3750000000000000
  0.8738973158310405  0.3750000000000000  0.1238973158310404
  0.8738973158310405  0.1238973158310404  0.3750000000000000
  0.6234490376225308  0.1224715754468783  0.1224715754468783
  0.6250000000000000  0.3750000000000000  0.3750000000000000
  0.1075461376632693  0.1228798363062321  0.3924538623367305
  0.6376911156043864  0.8623088843956136  0.6391363790990354
  0.3915069020890310  0.1084930979109690  0.1084930979109690
  0.8608636209009646  0.8623088843956136  0.8623088843956136
  0.1075461376632693  0.3924538623367305  0.1228798363062321
  0.6376911156043864  0.6391363790990354  0.8623088843956136
  0.3771201636937678  0.3924538623367305  0.3924538623367305
  0.8584930979109692  0.6415069020890308  0.6415069020890308
  0.1098640690344288  0.6106207802530055  0.8874114672045443
  0.3606207802530054  0.8625885327954557  0.3598640690344289
  0.1098640690344288  0.8874114672045443  0.6106207802530055
  0.3615434370030419  0.6377364968296640  0.1384565629969580
  0.3891363790990353  0.8876911156043864  0.8876911156043864
  0.1424538623367307  0.6271201636937679  0.3575461376632695
  0.3877364968296642  0.6115434370030418  0.6115434370030418
  0.1401359309655712  0.8625885327954557  0.1393792197469947
  0.6123088843956136  0.1108636209009647  0.8876911156043864
  0.3615434370030419  0.1384565629969580  0.6377364968296640
  0.8893792197469945  0.3901359309655711  0.8874114672045443
  0.1424538623367307  0.3575461376632695  0.6271201636937679
  0.8884565629969582  0.1122635031703358  0.6115434370030418
  0.1401359309655712  0.1393792197469947  0.8625885327954557
  0.6125885327954557  0.3901359309655711  0.6106207802530055
  0.3606207802530054  0.3598640690344289  0.8625885327954557
  0.6125885327954557  0.6106207802530055  0.3901359309655711
  0.8884565629969582  0.6115434370030418  0.1122635031703358
  0.6123088843956136  0.8876911156043864  0.1108636209009647
  0.8893792197469945  0.8874114672045443  0.3901359309655711
  0.8728798363062321  0.3575461376632695  0.3575461376632695
  0.8622635031703360  0.1384565629969580  0.1384565629969580
  0.6374114672045443  0.1393792197469947  0.3598640690344289
  0.6374114672045443  0.3598640690344289  0.1393792197469947
 
  0.00000000E+00  0.00000000E+00  0.00000000E+00
  0.00000000E+00  0.00000000E+00  0.00000000E+00
  0.00000000E+00  0.00000000E+00  0.00000000E+00
  0.00000000E+00  0.00000000E+00  0.00000000E+00
  0.00000000E+00  0.00000000E+00  0.00000000E+00
  0.00000000E+00  0.00000000E+00  0.00000000E+00
  0.00000000E+00  0.00000000E+00  0.00000000E+00
  0.00000000E+00  0.00000000E+00  0.00000000E+00
  0.00000000E+00  0.00000000E+00  0.00000000E+00
  0.00000000E+00  0.00000000E+00  0.00000000E+00
  0.00000000E+00  0.00000000E+00  0.00000000E+00
  0.00000000E+00  0.00000000E+00  0.00000000E+00
  0.00000000E+00  0.00000000E+00  0.00000000E+00
  0.00000000E+00  0.00000000E+00  0.00000000E+00
  0.00000000E+00  0.00000000E+00  0.00000000E+00
  0.00000000E+00  0.00000000E+00  0.00000000E+00
  0.00000000E+00  0.00000000E+00  0.00000000E+00
  0.00000000E+00  0.00000000E+00  0.00000000E+00
  0.00000000E+00  0.00000000E+00  0.00000000E+00
  0.00000000E+00  0.00000000E+00  0.00000000E+00
  0.00000000E+00  0.00000000E+00  0.00000000E+00
  0.00000000E+00  0.00000000E+00  0.00000000E+00
  0.00000000E+00  0.00000000E+00  0.00000000E+00
  0.00000000E+00  0.00000000E+00  0.00000000E+00
  0.00000000E+00  0.00000000E+00  0.00000000E+00
  0.00000000E+00  0.00000000E+00  0.00000000E+00
  0.00000000E+00  0.00000000E+00  0.00000000E+00
  0.00000000E+00  0.00000000E+00  0.00000000E+00
  0.00000000E+00  0.00000000E+00  0.00000000E+00
  0.00000000E+00  0.00000000E+00  0.00000000E+00
  0.00000000E+00  0.00000000E+00  0.00000000E+00
  0.00000000E+00  0.00000000E+00  0.00000000E+00
  0.00000000E+00  0.00000000E+00  0.00000000E+00
  0.00000000E+00  0.00000000E+00  0.00000000E+00
  0.00000000E+00  0.00000000E+00  0.00000000E+00
  0.00000000E+00  0.00000000E+00  0.00000000E+00
  0.00000000E+00  0.00000000E+00  0.00000000E+00
  0.00000000E+00  0.00000000E+00  0.00000000E+00
  0.00000000E+00  0.00000000E+00  0.00000000E+00
  0.00000000E+00  0.00000000E+00  0.00000000E+00
  0.00000000E+00  0.00000000E+00  0.00000000E+00
  0.00000000E+00  0.00000000E+00  0.00000000E+00
  0.00000000E+00  0.00000000E+00  0.00000000E+00
  0.00000000E+00  0.00000000E+00  0.00000000E+00
  0.00000000E+00  0.00000000E+00  0.00000000E+00
  0.00000000E+00  0.00000000E+00  0.00000000E+00
  0.00000000E+00  0.00000000E+00  0.00000000E+00
  0.00000000E+00  0.00000000E+00  0.00000000E+00
  0.00000000E+00  0.00000000E+00  0.00000000E+00
  0.00000000E+00  0.00000000E+00  0.00000000E+00
  0.00000000E+00  0.00000000E+00  0.00000000E+00
  0.00000000E+00  0.00000000E+00  0.00000000E+00
  0.00000000E+00  0.00000000E+00  0.00000000E+00
  0.00000000E+00  0.00000000E+00  0.00000000E+00
  0.00000000E+00  0.00000000E+00  0.00000000E+00
