&CONTROL
  calculation='relax',
  prefix='calc',
  pseudo_dir='/nfs/slac/g/suncatfs/sw/external/esp-psp/v2',
  outdir='.',
  tefield=.true.,
  dipfield=.true.,
  tprnfor=.true.,
  disk_io='none',
/
&SYSTEM
  ibrav=0,
  celldm(1)=1.8897261245650618d0,
  nat=41,
  ntyp=5,
  ecutwfc=36.7493237909d0,
  ecutrho=367.493237909d0,
  nbnd=215,
  occupations='smearing',
  smearing='mv',
  degauss=0.00734986475817d0,
  input_dft='BEEF',
  edir=3,
  emaxpos=0.0224069672965d0,
  eopreg=0.025d0,
  eamp=0.0d0,
/
&ELECTRONS
  diagonalization='david',
  conv_thr=7.34986475817e-06,
  mixing_ndim=10,
  mixing_mode='local-TF',
  electron_maxstep=300,
  mixing_beta=0.1d0,
  conv_thr=7.34986475817e-06,
/
&IONS
  ion_dynamics='ase3',
/
CELL_PARAMETERS
    7.806466670766000d0     0.000000000000000d0     0.000000000000000d0
    0.000000000000000d0     6.373953345806000d0     0.000000000000000d0
    0.000000000000000d0     0.000000000000000d0    28.527096162408998d0
ATOMIC_SPECIES
Zn1 65.39d0 Zn.UPF
Cu1 63.546d0 Cu.UPF
O1 15.9994d0 O.UPF
C1 12.011d0 C.UPF
H1 1.00794d0 H.UPF
ATOMIC_POSITIONS {crystal}
Zn1      0.062503886601563d0     0.191768196247240d0     0.629596257935755d0
Cu1      0.434266244760951d0     0.176500077473185d0     0.621007008173572d0
Cu1      0.752859733823032d0     0.173070964261313d0     0.622753417197219d0
Cu1      0.251203776543935d0     0.834693826101866d0     0.599830931179806d0
Cu1      0.589469246084864d0     0.840506183779229d0     0.594494234580525d0
Cu1      0.916631415383193d0     0.836331566324529d0     0.593853769662629d0
Cu1      0.087316940738208d0     0.511487461614397d0     0.570688522282877d0
Cu1      0.419999976331663d0     0.511797287053060d0     0.571105975526577d0
Cu1      0.750857732408168d0     0.509657108307702d0     0.571327079831386d0
Cu1      0.250656955813123d0     0.179837023750325d0     0.544795790307611d0
Cu1      0.587986643007884d0     0.180628106809410d0     0.544849939403160d0
Cu1      0.921971629213659d0     0.180447551899877d0     0.544810939457712d0
Cu1      0.087804928745139d0     0.842663198197983d0     0.518559282901083d0
Cu1      0.416189242182170d0     0.842409905029747d0     0.518635539480476d0
Cu1      0.751879727026767d0     0.842491221714356d0     0.517295577268524d0
Cu1      0.251912772604176d0     0.507251024147609d0     0.491394988572518d0
Cu1      0.584531777299840d0     0.507829618240441d0     0.491326405092399d0
Cu1      0.917105015957894d0     0.507909554028164d0     0.491386088982237d0
Cu1      0.083332876627320d0     0.172011732011520d0     0.465857928974722d0
Cu1      0.416665876627326d0     0.172011732011520d0     0.465857928974722d0
Cu1      0.749999876627332d0     0.172011732011520d0     0.465857928974722d0
Cu1      0.249998876627323d0     0.838678732011604d0     0.439526066573635d0
Cu1      0.583332876627329d0     0.838678732011604d0     0.439526066573635d0
Cu1      0.916665876627335d0     0.838678732011604d0     0.439526066573635d0
Cu1      0.083332876627320d0     0.505344732011562d0     0.413193549932277d0
Cu1      0.416665876627326d0     0.505344732011562d0     0.413193549932277d0
Cu1      0.749999876627332d0     0.505344732011562d0     0.413193549932277d0
Cu1      0.249998876627323d0     0.172011732011520d0     0.386861687531190d0
Cu1      0.583332876627329d0     0.172011732011520d0     0.386861687531190d0
Cu1      0.916665876627335d0     0.172011732011520d0     0.386861687531190d0
Cu1      0.083332876627320d0     0.838678732011604d0     0.360529825130102d0
Cu1      0.416665876627326d0     0.838678732011604d0     0.360529825130102d0
Cu1      0.749999876627332d0     0.838678732011604d0     0.360529825130102d0
Cu1      0.249998876627323d0     0.505344732011562d0     0.334197308488745d0
Cu1      0.583332876627329d0     0.505344732011562d0     0.334197308488745d0
Cu1      0.916665876627335d0     0.505344732011562d0     0.334197308488745d0
O1       0.256159375317966d0     0.068708567666336d0     0.656035460305658d0
C1       0.765732408011756d0     0.175111401549329d0     0.694976800810577d0
H1       0.768181298340233d0     0.330679303504066d0     0.710616626104334d0
H1       0.646815779655141d0     0.096507118581359d0     0.705124294655820d0
H1       0.869377798373732d0     0.080909007458301d0     0.709317682352111d0
K_POINTS automatic
4 4 1 0 0 0
